\ LP format - for model browsing. Use MPS format to capture full model detail.
\ Signature: 0xfc51c7557d6d4334
Minimize
  1.7179869184e+10 medcol1_0 + 8.589934592e+09 medcol1_1
   + 4.294967296e+09 medcol1_2 + 2.147483648e+09 medcol1_3
   + 1.073741824e+09 medcol1_4 + 5.36870912e+08 medcol1_5
   + 2.68435456e+08 medcol1_6 + 1.34217728e+08 medcol1_7
   + 6.7108864e+07 medcol1_8 + 3.3554432e+07 medcol1_9
   + 1.6777216e+07 medcol1_10 + 8.388608e+06 medcol1_11
   + 4.194304e+06 medcol1_12 + 2.097152e+06 medcol1_13
   + 1.048576e+06 medcol1_14 + 524288 medcol1_15 + 262144 medcol1_16
   + 131072 medcol1_17 + 65536 medcol1_18 + 32768 medcol1_19
   + 16384 medcol1_20 + 8192 medcol1_21 + 4096 medcol1_22 + 2048 medcol1_23
   + 1024 medcol1_24 + 512 medcol1_25 + 256 medcol1_26 + 128 medcol1_27
   + 64 medcol1_28 + 32 medcol1_29 + 16 medcol1_30 + 8 medcol1_31
   + 4 medcol1_32 + 2 medcol1_33 + medcol1_34 + 1.7179869184e+10 medcol2_0
   + 8.589934592e+09 medcol2_1 + 4.294967296e+09 medcol2_2
   + 2.147483648e+09 medcol2_3 + 1.073741824e+09 medcol2_4
   + 5.36870912e+08 medcol2_5 + 2.68435456e+08 medcol2_6
   + 1.34217728e+08 medcol2_7 + 6.7108864e+07 medcol2_8
   + 3.3554432e+07 medcol2_9 + 1.6777216e+07 medcol2_10
   + 8.388608e+06 medcol2_11 + 4.194304e+06 medcol2_12
   + 2.097152e+06 medcol2_13 + 1.048576e+06 medcol2_14 + 524288 medcol2_15
   + 262144 medcol2_16 + 131072 medcol2_17 + 65536 medcol2_18
   + 32768 medcol2_19 + 16384 medcol2_20 + 8192 medcol2_21
   + 4096 medcol2_22 + 2048 medcol2_23 + 1024 medcol2_24 + 512 medcol2_25
   + 256 medcol2_26 + 128 medcol2_27 + 64 medcol2_28 + 32 medcol2_29
   + 16 medcol2_30 + 8 medcol2_31 + 4 medcol2_32 + 2 medcol2_33
   + medcol2_34 + 1.7179869184e+10 medcol3_0 + 8.589934592e+09 medcol3_1
   + 4.294967296e+09 medcol3_2 + 2.147483648e+09 medcol3_3
   + 1.073741824e+09 medcol3_4 + 5.36870912e+08 medcol3_5
   + 2.68435456e+08 medcol3_6 + 1.34217728e+08 medcol3_7
   + 6.7108864e+07 medcol3_8 + 3.3554432e+07 medcol3_9
   + 1.6777216e+07 medcol3_10 + 8.388608e+06 medcol3_11
   + 4.194304e+06 medcol3_12 + 2.097152e+06 medcol3_13
   + 1.048576e+06 medcol3_14 + 524288 medcol3_15 + 262144 medcol3_16
   + 131072 medcol3_17 + 65536 medcol3_18 + 32768 medcol3_19
   + 16384 medcol3_20 + 8192 medcol3_21 + 4096 medcol3_22 + 2048 medcol3_23
   + 1024 medcol3_24 + 512 medcol3_25 + 256 medcol3_26 + 128 medcol3_27
   + 64 medcol3_28 + 32 medcol3_29 + 16 medcol3_30 + 8 medcol3_31
   + 4 medcol3_32 + 2 medcol3_33 + medcol3_34 + 1.7179869184e+10 medcol4_0
   + 8.589934592e+09 medcol4_1 + 4.294967296e+09 medcol4_2
   + 2.147483648e+09 medcol4_3 + 1.073741824e+09 medcol4_4
   + 5.36870912e+08 medcol4_5 + 2.68435456e+08 medcol4_6
   + 1.34217728e+08 medcol4_7 + 6.7108864e+07 medcol4_8
   + 3.3554432e+07 medcol4_9 + 1.6777216e+07 medcol4_10
   + 8.388608e+06 medcol4_11 + 4.194304e+06 medcol4_12
   + 2.097152e+06 medcol4_13 + 1.048576e+06 medcol4_14 + 524288 medcol4_15
   + 262144 medcol4_16 + 131072 medcol4_17 + 65536 medcol4_18
   + 32768 medcol4_19 + 16384 medcol4_20 + 8192 medcol4_21
   + 4096 medcol4_22 + 2048 medcol4_23 + 1024 medcol4_24 + 512 medcol4_25
   + 256 medcol4_26 + 128 medcol4_27 + 64 medcol4_28 + 32 medcol4_29
   + 16 medcol4_30 + 8 medcol4_31 + 4 medcol4_32 + 2 medcol4_33
   + medcol4_34
Subject To
 R0: p0_4_0 = 0.25
 R1: p0_5_0 = 0.25
 R2: p0_5_1 = 0.25
 R3: p0_6_0 = 0.25
 R4: p0_6_1 = 0.25
 R5: p0_6_2 = 0.25
 R6: p0_7_0 = 0.25
 R7: p0_7_1 = 0.25
 R8: p0_7_2 = 0.25
 R9: p0_7_3 = 0.25
 R10: p0_8_0 = 0.25
 R11: p0_8_1 = 0.25
 R12: p0_8_2 = 0.25
 R13: p0_8_3 = 0.25
 R14: p0_8_4 = 0.25
 R15: p0_9_0 = 0.25
 R16: p0_9_1 = 0.25
 R17: p0_9_2 = 0.25
 R18: p0_9_3 = 0.25
 R19: p0_9_4 = 0.25
 R20: p0_9_5 = 0.25
 R21: p0_10_0 = 0.25
 R22: p0_10_1 = 0.25
 R23: p0_10_2 = 0.25
 R24: p0_10_3 = 0.25
 R25: p0_10_4 = 0.25
 R26: p0_10_5 = 0.25
 R27: p0_10_6 = 0.25
 R28: p0_11_0 = 0.25
 R29: p0_11_1 = 0.25
 R30: p0_11_2 = 0.25
 R31: p0_11_3 = 0.25
 R32: p0_11_4 = 0.25
 R33: p0_11_5 = 0.25
 R34: p0_11_6 = 0.25
 R35: p0_11_7 = 0.25
 R36: p0_12_0 = 0.25
 R37: p0_12_1 = 0.25
 R38: p0_12_2 = 0.25
 R39: p0_12_3 = 0.25
 R40: p0_12_4 = 0.25
 R41: p0_12_5 = 0.25
 R42: p0_12_6 = 0.25
 R43: p0_12_7 = 0.25
 R44: p0_12_8 = 0.25
 R45: p0_13_0 = 0.25
 R46: p0_13_1 = 0.25
 R47: p0_13_2 = 0.25
 R48: p0_13_3 = 0.25
 R49: p0_13_4 = 0.25
 R50: p0_13_5 = 0.25
 R51: p0_13_6 = 0.25
 R52: p0_13_7 = 0.25
 R53: p0_13_8 = 0.25
 R54: p0_13_9 = 0.25
 R55: p0_14_0 = 0.25
 R56: p0_14_1 = 0.25
 R57: p0_14_2 = 0.25
 R58: p0_14_3 = 0.25
 R59: p0_14_4 = 0.25
 R60: p0_14_5 = 0.25
 R61: p0_14_6 = 0.25
 R62: p0_14_7 = 0.25
 R63: p0_14_8 = 0.25
 R64: p0_14_9 = 0.25
 R65: p0_14_10 = 0.25
 R66: p0_15_0 = 0.25
 R67: p0_15_1 = 0.25
 R68: p0_15_2 = 0.25
 R69: p0_15_3 = 0.25
 R70: p0_15_4 = 0.25
 R71: p0_15_5 = 0.25
 R72: p0_15_6 = 0.25
 R73: p0_15_7 = 0.25
 R74: p0_15_8 = 0.25
 R75: p0_15_9 = 0.25
 R76: p0_15_10 = 0.25
 R77: p0_15_11 = 0.25
 R78: p0_16_0 = 0.25
 R79: p0_16_1 = 0.25
 R80: p0_16_2 = 0.25
 R81: p0_16_3 = 0.25
 R82: p0_16_4 = 0.25
 R83: p0_16_5 = 0.25
 R84: p0_16_6 = 0.25
 R85: p0_16_7 = 0.25
 R86: p0_16_8 = 0.25
 R87: p0_16_9 = 0.25
 R88: p0_16_10 = 0.25
 R89: p0_16_11 = 0.25
 R90: p0_16_12 = 0.25
 R91: p0_17_0 = 0.25
 R92: p0_17_1 = 0.25
 R93: p0_17_2 = 0.25
 R94: p0_17_3 = 0.25
 R95: p0_17_4 = 0.25
 R96: p0_17_5 = 0.25
 R97: p0_17_6 = 0.25
 R98: p0_17_7 = 0.25
 R99: p0_17_8 = 0.25
 R100: p0_17_9 = 0.25
 R101: p0_17_10 = 0.25
 R102: p0_17_11 = 0.25
 R103: p0_17_12 = 0.25
 R104: p0_17_13 = 0.25
 R105: p0_18_0 = 0.25
 R106: p0_18_1 = 0.25
 R107: p0_18_2 = 0.25
 R108: p0_18_3 = 0.25
 R109: p0_18_4 = 0.25
 R110: p0_18_5 = 0.25
 R111: p0_18_6 = 0.25
 R112: p0_18_7 = 0.25
 R113: p0_18_8 = 0.25
 R114: p0_18_9 = 0.25
 R115: p0_18_10 = 0.25
 R116: p0_18_11 = 0.25
 R117: p0_18_12 = 0.25
 R118: p0_18_13 = 0.25
 R119: p0_18_14 = 0.25
 R120: p0_19_0 = 0.25
 R121: p0_19_1 = 0.25
 R122: p0_19_2 = 0.25
 R123: p0_19_3 = 0.25
 R124: p0_19_4 = 0.25
 R125: p0_19_5 = 0.25
 R126: p0_19_6 = 0.25
 R127: p0_19_7 = 0.25
 R128: p0_19_8 = 0.25
 R129: p0_19_9 = 0.25
 R130: p0_19_10 = 0.25
 R131: p0_19_11 = 0.25
 R132: p0_19_12 = 0.25
 R133: p0_19_13 = 0.25
 R134: p0_19_14 = 0.25
 R135: p0_19_15 = 0.25
 R136: p0_20_0 = 0.25
 R137: p0_20_1 = 0.25
 R138: p0_20_2 = 0.25
 R139: p0_20_3 = 0.25
 R140: p0_20_4 = 0.25
 R141: p0_20_5 = 0.25
 R142: p0_20_6 = 0.25
 R143: p0_20_7 = 0.25
 R144: p0_20_8 = 0.25
 R145: p0_20_9 = 0.25
 R146: p0_20_10 = 0.25
 R147: p0_20_11 = 0.25
 R148: p0_20_12 = 0.25
 R149: p0_20_13 = 0.25
 R150: p0_20_14 = 0.25
 R151: p0_21_0 = 0.25
 R152: p0_21_1 = 0.25
 R153: p0_21_2 = 0.25
 R154: p0_21_3 = 0.25
 R155: p0_21_4 = 0.25
 R156: p0_21_5 = 0.25
 R157: p0_21_6 = 0.25
 R158: p0_21_7 = 0.25
 R159: p0_21_8 = 0.25
 R160: p0_21_9 = 0.25
 R161: p0_21_10 = 0.25
 R162: p0_21_11 = 0.25
 R163: p0_21_12 = 0.25
 R164: p0_21_13 = 0.25
 R165: p0_22_0 = 0.25
 R166: p0_22_1 = 0.25
 R167: p0_22_2 = 0.25
 R168: p0_22_3 = 0.25
 R169: p0_22_4 = 0.25
 R170: p0_22_5 = 0.25
 R171: p0_22_6 = 0.25
 R172: p0_22_7 = 0.25
 R173: p0_22_8 = 0.25
 R174: p0_22_9 = 0.25
 R175: p0_22_10 = 0.25
 R176: p0_22_11 = 0.25
 R177: p0_22_12 = 0.25
 R178: p0_23_0 = 0.25
 R179: p0_23_1 = 0.25
 R180: p0_23_2 = 0.25
 R181: p0_23_3 = 0.25
 R182: p0_23_4 = 0.25
 R183: p0_23_5 = 0.25
 R184: p0_23_6 = 0.25
 R185: p0_23_7 = 0.25
 R186: p0_23_8 = 0.25
 R187: p0_23_9 = 0.25
 R188: p0_23_10 = 0.25
 R189: p0_23_11 = 0.25
 R190: p0_24_0 = 0.25
 R191: p0_24_1 = 0.25
 R192: p0_24_2 = 0.25
 R193: p0_24_3 = 0.25
 R194: p0_24_4 = 0.25
 R195: p0_24_5 = 0.25
 R196: p0_24_6 = 0.25
 R197: p0_24_7 = 0.25
 R198: p0_24_8 = 0.25
 R199: p0_24_9 = 0.25
 R200: p0_24_10 = 0.25
 R201: p0_25_0 = 0.25
 R202: p0_25_1 = 0.25
 R203: p0_25_2 = 0.25
 R204: p0_25_3 = 0.25
 R205: p0_25_4 = 0.25
 R206: p0_25_5 = 0.25
 R207: p0_25_6 = 0.25
 R208: p0_25_7 = 0.25
 R209: p0_25_8 = 0.25
 R210: p0_25_9 = 0.25
 R211: p0_26_0 = 0.25
 R212: p0_26_1 = 0.25
 R213: p0_26_2 = 0.25
 R214: p0_26_3 = 0.25
 R215: p0_26_4 = 0.25
 R216: p0_26_5 = 0.25
 R217: p0_26_6 = 0.25
 R218: p0_26_7 = 0.25
 R219: p0_26_8 = 0.25
 R220: p0_27_0 = 0.25
 R221: p0_27_1 = 0.25
 R222: p0_27_2 = 0.25
 R223: p0_27_3 = 0.25
 R224: p0_27_4 = 0.25
 R225: p0_27_5 = 0.25
 R226: p0_27_6 = 0.25
 R227: p0_27_7 = 0.25
 R228: p0_28_0 = 0.25
 R229: p0_28_1 = 0.25
 R230: p0_28_2 = 0.25
 R231: p0_28_3 = 0.25
 R232: p0_28_4 = 0.25
 R233: p0_28_5 = 0.25
 R234: p0_28_6 = 0.25
 R235: p0_29_0 = 0.25
 R236: p0_29_1 = 0.25
 R237: p0_29_2 = 0.25
 R238: p0_29_3 = 0.25
 R239: p0_29_4 = 0.25
 R240: p0_29_5 = 0.25
 R241: p0_30_0 = 0.25
 R242: p0_30_1 = 0.25
 R243: p0_30_2 = 0.25
 R244: p0_30_3 = 0.25
 R245: p0_30_4 = 0.25
 R246: p0_31_0 = 0.25
 R247: p0_31_1 = 0.25
 R248: p0_31_2 = 0.25
 R249: p0_31_3 = 0.25
 R250: p0_32_0 = 0.25
 R251: p0_32_1 = 0.25
 R252: p0_32_2 = 0.25
 R253: p0_33_0 = 0.25
 R254: p0_33_1 = 0.25
 R255: p0_34_0 = 0.25
 R256: rb0_4_0_0 = 1
 R257: rb0_5_0_0 = 1
 R258: rb0_5_0_1 = 0
 R259: rb0_5_1_0 = 0
 R260: rb0_5_1_1 = 1
 R261: rb0_6_0_0 = 1
 R262: rb0_6_0_1 = 0
 R263: rb0_6_0_2 = 0
 R264: rb0_6_1_0 = 0
 R265: rb0_6_1_1 = 1
 R266: rb0_6_1_2 = 0
 R267: rb0_6_2_0 = 0
 R268: rb0_6_2_1 = 0
 R269: rb0_6_2_2 = 1
 R270: rb0_7_0_0 = 1
 R271: rb0_7_0_1 = 0
 R272: rb0_7_0_2 = 0
 R273: rb0_7_0_3 = 0
 R274: rb0_7_1_0 = 0
 R275: rb0_7_1_1 = 1
 R276: rb0_7_1_2 = 0
 R277: rb0_7_1_3 = 0
 R278: rb0_7_2_0 = 0
 R279: rb0_7_2_1 = 0
 R280: rb0_7_2_2 = 1
 R281: rb0_7_2_3 = 0
 R282: rb0_7_3_0 = 0
 R283: rb0_7_3_1 = 0
 R284: rb0_7_3_2 = 0
 R285: rb0_7_3_3 = 1
 R286: rb0_8_0_0 = 1
 R287: rb0_8_0_1 = 0
 R288: rb0_8_0_2 = 0
 R289: rb0_8_0_3 = 0
 R290: rb0_8_0_4 = 0
 R291: rb0_8_1_0 = 0
 R292: rb0_8_1_1 = 1
 R293: rb0_8_1_2 = 0
 R294: rb0_8_1_3 = 0
 R295: rb0_8_1_4 = 0
 R296: rb0_8_2_0 = 0
 R297: rb0_8_2_1 = 0
 R298: rb0_8_2_2 = 1
 R299: rb0_8_2_3 = 0
 R300: rb0_8_2_4 = 0
 R301: rb0_8_3_0 = 0
 R302: rb0_8_3_1 = 0
 R303: rb0_8_3_2 = 0
 R304: rb0_8_3_3 = 1
 R305: rb0_8_3_4 = 0
 R306: rb0_8_4_0 = 0
 R307: rb0_8_4_1 = 0
 R308: rb0_8_4_2 = 0
 R309: rb0_8_4_3 = 0
 R310: rb0_8_4_4 = 1
 R311: f0_9_0_1_0 = 1
 R312: f0_9_0_1_1 = 0
 R313: f0_9_0_1_2 = 0
 R314: f0_9_0_2_0 = 0
 R315: f0_9_0_2_1 = 0
 R316: f0_9_0_2_2 = 0
 R317: f0_9_1_1_0 = 0
 R318: f0_9_1_1_1 = 1
 R319: f0_9_1_1_2 = 0
 R320: f0_9_1_2_0 = 0
 R321: f0_9_1_2_1 = 0
 R322: f0_9_1_2_2 = 0
 R323: f0_9_2_1_0 = 0
 R324: f0_9_2_1_1 = 0
 R325: f0_9_2_1_2 = 1
 R326: f0_9_2_2_0 = 0
 R327: f0_9_2_2_1 = 0
 R328: f0_9_2_2_2 = 0
 R329: f0_9_3_1_0 = 0
 R330: f0_9_3_1_1 = 0
 R331: f0_9_3_1_2 = 0
 R332: f0_9_3_2_0 = 1
 R333: f0_9_3_2_1 = 0
 R334: f0_9_3_2_2 = 0
 R335: f0_9_4_1_0 = 0
 R336: f0_9_4_1_1 = 0
 R337: f0_9_4_1_2 = 0
 R338: f0_9_4_2_0 = 0
 R339: f0_9_4_2_1 = 1
 R340: f0_9_4_2_2 = 0
 R341: f0_9_5_1_0 = 0
 R342: f0_9_5_1_1 = 0
 R343: f0_9_5_1_2 = 0
 R344: f0_9_5_2_0 = 0
 R345: f0_9_5_2_1 = 0
 R346: f0_9_5_2_2 = 1
 R347: rb0_10_0_0 = 1
 R348: rb0_10_1_0 = 0
 R349: rb0_10_2_0 = 0
 R350: rb0_10_3_0 = 0
 R351: rb0_10_4_0 = 0
 R352: rb0_10_5_0 = 0
 R353: rb0_10_6_0 = 0
 R354: f0_10_0_1_0 = 0
 R355: f0_10_0_1_1 = 0
 R356: f0_10_0_1_2 = 0
 R357: f0_10_0_2_0 = 0
 R358: f0_10_0_2_1 = 0
 R359: f0_10_0_2_2 = 0
 R360: f0_10_1_1_0 = 1
 R361: f0_10_1_1_1 = 0
 R362: f0_10_1_1_2 = 0
 R363: f0_10_1_2_0 = 0
 R364: f0_10_1_2_1 = 0
 R365: f0_10_1_2_2 = 0
 R366: f0_10_2_1_0 = 0
 R367: f0_10_2_1_1 = 1
 R368: f0_10_2_1_2 = 0
 R369: f0_10_2_2_0 = 0
 R370: f0_10_2_2_1 = 0
 R371: f0_10_2_2_2 = 0
 R372: f0_10_3_1_0 = 0
 R373: f0_10_3_1_1 = 0
 R374: f0_10_3_1_2 = 1
 R375: f0_10_3_2_0 = 0
 R376: f0_10_3_2_1 = 0
 R377: f0_10_3_2_2 = 0
 R378: f0_10_4_1_0 = 0
 R379: f0_10_4_1_1 = 0
 R380: f0_10_4_1_2 = 0
 R381: f0_10_4_2_0 = 1
 R382: f0_10_4_2_1 = 0
 R383: f0_10_4_2_2 = 0
 R384: f0_10_5_1_0 = 0
 R385: f0_10_5_1_1 = 0
 R386: f0_10_5_1_2 = 0
 R387: f0_10_5_2_0 = 0
 R388: f0_10_5_2_1 = 1
 R389: f0_10_5_2_2 = 0
 R390: f0_10_6_1_0 = 0
 R391: f0_10_6_1_1 = 0
 R392: f0_10_6_1_2 = 0
 R393: f0_10_6_2_0 = 0
 R394: f0_10_6_2_1 = 0
 R395: f0_10_6_2_2 = 1
 R396: f0_11_0_1_0 = 1
 R397: f0_11_0_1_1 = 0
 R398: f0_11_0_1_2 = 0
 R399: f0_11_0_2_0 = 0
 R400: f0_11_0_2_1 = 0
 R401: f0_11_0_2_2 = 0
 R402: f0_11_1_1_0 = 0
 R403: f0_11_1_1_1 = 1
 R404: f0_11_1_1_2 = 0
 R405: f0_11_1_2_0 = 0
 R406: f0_11_1_2_1 = 0
 R407: f0_11_1_2_2 = 0
 R408: f0_11_2_1_0 = 0
 R409: f0_11_2_1_1 = 0
 R410: f0_11_2_1_2 = 1
 R411: f0_11_2_2_0 = 0
 R412: f0_11_2_2_1 = 0
 R413: f0_11_2_2_2 = 0
 R414: f0_11_3_1_0 = 0
 R415: f0_11_3_1_1 = 0
 R416: f0_11_3_1_2 = 0
 R417: f0_11_3_2_0 = 1
 R418: f0_11_3_2_1 = 0
 R419: f0_11_3_2_2 = 0
 R420: f0_11_4_1_0 = 0
 R421: f0_11_4_1_1 = 0
 R422: f0_11_4_1_2 = 0
 R423: f0_11_4_2_0 = 0
 R424: f0_11_4_2_1 = 1
 R425: f0_11_4_2_2 = 0
 R426: f0_11_5_1_0 = 0
 R427: f0_11_5_1_1 = 0
 R428: f0_11_5_1_2 = 0
 R429: f0_11_5_2_0 = 0
 R430: f0_11_5_2_1 = 0
 R431: f0_11_5_2_2 = 1
 R432: f0_11_6_1_0 = 0
 R433: f0_11_6_1_1 = 0
 R434: f0_11_6_1_2 = 0
 R435: f0_11_6_2_0 = 0
 R436: f0_11_6_2_1 = 0
 R437: f0_11_6_2_2 = 0
 R438: f0_11_7_1_0 = 0
 R439: f0_11_7_1_1 = 0
 R440: f0_11_7_1_2 = 0
 R441: f0_11_7_2_0 = 0
 R442: f0_11_7_2_1 = 0
 R443: f0_11_7_2_2 = 0
 R444: h0_11_0_1_0 = 0
 R445: h0_11_0_1_1 = 0
 R446: h0_11_1_1_0 = 0
 R447: h0_11_1_1_1 = 0
 R448: h0_11_2_1_0 = 0
 R449: h0_11_2_1_1 = 0
 R450: h0_11_3_1_0 = 0
 R451: h0_11_3_1_1 = 0
 R452: h0_11_4_1_0 = 0
 R453: h0_11_4_1_1 = 0
 R454: h0_11_5_1_0 = 0
 R455: h0_11_5_1_1 = 0
 R456: h0_11_6_1_0 = 1
 R457: h0_11_6_1_1 = 0
 R458: h0_11_7_1_0 = 0
 R459: h0_11_7_1_1 = 1
 R460: f0_12_0_1_0 = 1
 R461: f0_12_0_1_1 = 0
 R462: f0_12_0_1_2 = 0
 R463: f0_12_0_2_0 = 0
 R464: f0_12_0_2_1 = 0
 R465: f0_12_0_2_2 = 0
 R466: f0_12_0_3_0 = 0
 R467: f0_12_0_3_1 = 0
 R468: f0_12_0_3_2 = 0
 R469: f0_12_1_1_0 = 0
 R470: f0_12_1_1_1 = 1
 R471: f0_12_1_1_2 = 0
 R472: f0_12_1_2_0 = 0
 R473: f0_12_1_2_1 = 0
 R474: f0_12_1_2_2 = 0
 R475: f0_12_1_3_0 = 0
 R476: f0_12_1_3_1 = 0
 R477: f0_12_1_3_2 = 0
 R478: f0_12_2_1_0 = 0
 R479: f0_12_2_1_1 = 0
 R480: f0_12_2_1_2 = 1
 R481: f0_12_2_2_0 = 0
 R482: f0_12_2_2_1 = 0
 R483: f0_12_2_2_2 = 0
 R484: f0_12_2_3_0 = 0
 R485: f0_12_2_3_1 = 0
 R486: f0_12_2_3_2 = 0
 R487: f0_12_3_1_0 = 0
 R488: f0_12_3_1_1 = 0
 R489: f0_12_3_1_2 = 0
 R490: f0_12_3_2_0 = 1
 R491: f0_12_3_2_1 = 0
 R492: f0_12_3_2_2 = 0
 R493: f0_12_3_3_0 = 0
 R494: f0_12_3_3_1 = 0
 R495: f0_12_3_3_2 = 0
 R496: f0_12_4_1_0 = 0
 R497: f0_12_4_1_1 = 0
 R498: f0_12_4_1_2 = 0
 R499: f0_12_4_2_0 = 0
 R500: f0_12_4_2_1 = 1
 R501: f0_12_4_2_2 = 0
 R502: f0_12_4_3_0 = 0
 R503: f0_12_4_3_1 = 0
 R504: f0_12_4_3_2 = 0
 R505: f0_12_5_1_0 = 0
 R506: f0_12_5_1_1 = 0
 R507: f0_12_5_1_2 = 0
 R508: f0_12_5_2_0 = 0
 R509: f0_12_5_2_1 = 0
 R510: f0_12_5_2_2 = 1
 R511: f0_12_5_3_0 = 0
 R512: f0_12_5_3_1 = 0
 R513: f0_12_5_3_2 = 0
 R514: f0_12_6_1_0 = 0
 R515: f0_12_6_1_1 = 0
 R516: f0_12_6_1_2 = 0
 R517: f0_12_6_2_0 = 0
 R518: f0_12_6_2_1 = 0
 R519: f0_12_6_2_2 = 0
 R520: f0_12_6_3_0 = 1
 R521: f0_12_6_3_1 = 0
 R522: f0_12_6_3_2 = 0
 R523: f0_12_7_1_0 = 0
 R524: f0_12_7_1_1 = 0
 R525: f0_12_7_1_2 = 0
 R526: f0_12_7_2_0 = 0
 R527: f0_12_7_2_1 = 0
 R528: f0_12_7_2_2 = 0
 R529: f0_12_7_3_0 = 0
 R530: f0_12_7_3_1 = 1
 R531: f0_12_7_3_2 = 0
 R532: f0_12_8_1_0 = 0
 R533: f0_12_8_1_1 = 0
 R534: f0_12_8_1_2 = 0
 R535: f0_12_8_2_0 = 0
 R536: f0_12_8_2_1 = 0
 R537: f0_12_8_2_2 = 0
 R538: f0_12_8_3_0 = 0
 R539: f0_12_8_3_1 = 0
 R540: f0_12_8_3_2 = 1
 R541: rb0_13_0_0 = 1
 R542: rb0_13_1_0 = 0
 R543: rb0_13_2_0 = 0
 R544: rb0_13_3_0 = 0
 R545: rb0_13_4_0 = 0
 R546: rb0_13_5_0 = 0
 R547: rb0_13_6_0 = 0
 R548: rb0_13_7_0 = 0
 R549: rb0_13_8_0 = 0
 R550: rb0_13_9_0 = 0
 R551: f0_13_0_1_0 = 0
 R552: f0_13_0_1_1 = 0
 R553: f0_13_0_1_2 = 0
 R554: f0_13_0_2_0 = 0
 R555: f0_13_0_2_1 = 0
 R556: f0_13_0_2_2 = 0
 R557: f0_13_0_3_0 = 0
 R558: f0_13_0_3_1 = 0
 R559: f0_13_0_3_2 = 0
 R560: f0_13_1_1_0 = 1
 R561: f0_13_1_1_1 = 0
 R562: f0_13_1_1_2 = 0
 R563: f0_13_1_2_0 = 0
 R564: f0_13_1_2_1 = 0
 R565: f0_13_1_2_2 = 0
 R566: f0_13_1_3_0 = 0
 R567: f0_13_1_3_1 = 0
 R568: f0_13_1_3_2 = 0
 R569: f0_13_2_1_0 = 0
 R570: f0_13_2_1_1 = 1
 R571: f0_13_2_1_2 = 0
 R572: f0_13_2_2_0 = 0
 R573: f0_13_2_2_1 = 0
 R574: f0_13_2_2_2 = 0
 R575: f0_13_2_3_0 = 0
 R576: f0_13_2_3_1 = 0
 R577: f0_13_2_3_2 = 0
 R578: f0_13_3_1_0 = 0
 R579: f0_13_3_1_1 = 0
 R580: f0_13_3_1_2 = 1
 R581: f0_13_3_2_0 = 0
 R582: f0_13_3_2_1 = 0
 R583: f0_13_3_2_2 = 0
 R584: f0_13_3_3_0 = 0
 R585: f0_13_3_3_1 = 0
 R586: f0_13_3_3_2 = 0
 R587: f0_13_4_1_0 = 0
 R588: f0_13_4_1_1 = 0
 R589: f0_13_4_1_2 = 0
 R590: f0_13_4_2_0 = 1
 R591: f0_13_4_2_1 = 0
 R592: f0_13_4_2_2 = 0
 R593: f0_13_4_3_0 = 0
 R594: f0_13_4_3_1 = 0
 R595: f0_13_4_3_2 = 0
 R596: f0_13_5_1_0 = 0
 R597: f0_13_5_1_1 = 0
 R598: f0_13_5_1_2 = 0
 R599: f0_13_5_2_0 = 0
 R600: f0_13_5_2_1 = 1
 R601: f0_13_5_2_2 = 0
 R602: f0_13_5_3_0 = 0
 R603: f0_13_5_3_1 = 0
 R604: f0_13_5_3_2 = 0
 R605: f0_13_6_1_0 = 0
 R606: f0_13_6_1_1 = 0
 R607: f0_13_6_1_2 = 0
 R608: f0_13_6_2_0 = 0
 R609: f0_13_6_2_1 = 0
 R610: f0_13_6_2_2 = 1
 R611: f0_13_6_3_0 = 0
 R612: f0_13_6_3_1 = 0
 R613: f0_13_6_3_2 = 0
 R614: f0_13_7_1_0 = 0
 R615: f0_13_7_1_1 = 0
 R616: f0_13_7_1_2 = 0
 R617: f0_13_7_2_0 = 0
 R618: f0_13_7_2_1 = 0
 R619: f0_13_7_2_2 = 0
 R620: f0_13_7_3_0 = 1
 R621: f0_13_7_3_1 = 0
 R622: f0_13_7_3_2 = 0
 R623: f0_13_8_1_0 = 0
 R624: f0_13_8_1_1 = 0
 R625: f0_13_8_1_2 = 0
 R626: f0_13_8_2_0 = 0
 R627: f0_13_8_2_1 = 0
 R628: f0_13_8_2_2 = 0
 R629: f0_13_8_3_0 = 0
 R630: f0_13_8_3_1 = 1
 R631: f0_13_8_3_2 = 0
 R632: f0_13_9_1_0 = 0
 R633: f0_13_9_1_1 = 0
 R634: f0_13_9_1_2 = 0
 R635: f0_13_9_2_0 = 0
 R636: f0_13_9_2_1 = 0
 R637: f0_13_9_2_2 = 0
 R638: f0_13_9_3_0 = 0
 R639: f0_13_9_3_1 = 0
 R640: f0_13_9_3_2 = 1
 R641: rb0_14_0_0 = 1
 R642: rb0_14_0_1 = 0
 R643: rb0_14_1_0 = 0
 R644: rb0_14_1_1 = 1
 R645: rb0_14_2_0 = 0
 R646: rb0_14_2_1 = 0
 R647: rb0_14_3_0 = 0
 R648: rb0_14_3_1 = 0
 R649: rb0_14_4_0 = 0
 R650: rb0_14_4_1 = 0
 R651: rb0_14_5_0 = 0
 R652: rb0_14_5_1 = 0
 R653: rb0_14_6_0 = 0
 R654: rb0_14_6_1 = 0
 R655: rb0_14_7_0 = 0
 R656: rb0_14_7_1 = 0
 R657: rb0_14_8_0 = 0
 R658: rb0_14_8_1 = 0
 R659: rb0_14_9_0 = 0
 R660: rb0_14_9_1 = 0
 R661: rb0_14_10_0 = 0
 R662: rb0_14_10_1 = 0
 R663: f0_14_0_1_0 = 0
 R664: f0_14_0_1_1 = 0
 R665: f0_14_0_1_2 = 0
 R666: f0_14_0_2_0 = 0
 R667: f0_14_0_2_1 = 0
 R668: f0_14_0_2_2 = 0
 R669: f0_14_0_3_0 = 0
 R670: f0_14_0_3_1 = 0
 R671: f0_14_0_3_2 = 0
 R672: f0_14_1_1_0 = 0
 R673: f0_14_1_1_1 = 0
 R674: f0_14_1_1_2 = 0
 R675: f0_14_1_2_0 = 0
 R676: f0_14_1_2_1 = 0
 R677: f0_14_1_2_2 = 0
 R678: f0_14_1_3_0 = 0
 R679: f0_14_1_3_1 = 0
 R680: f0_14_1_3_2 = 0
 R681: f0_14_2_1_0 = 1
 R682: f0_14_2_1_1 = 0
 R683: f0_14_2_1_2 = 0
 R684: f0_14_2_2_0 = 0
 R685: f0_14_2_2_1 = 0
 R686: f0_14_2_2_2 = 0
 R687: f0_14_2_3_0 = 0
 R688: f0_14_2_3_1 = 0
 R689: f0_14_2_3_2 = 0
 R690: f0_14_3_1_0 = 0
 R691: f0_14_3_1_1 = 1
 R692: f0_14_3_1_2 = 0
 R693: f0_14_3_2_0 = 0
 R694: f0_14_3_2_1 = 0
 R695: f0_14_3_2_2 = 0
 R696: f0_14_3_3_0 = 0
 R697: f0_14_3_3_1 = 0
 R698: f0_14_3_3_2 = 0
 R699: f0_14_4_1_0 = 0
 R700: f0_14_4_1_1 = 0
 R701: f0_14_4_1_2 = 1
 R702: f0_14_4_2_0 = 0
 R703: f0_14_4_2_1 = 0
 R704: f0_14_4_2_2 = 0
 R705: f0_14_4_3_0 = 0
 R706: f0_14_4_3_1 = 0
 R707: f0_14_4_3_2 = 0
 R708: f0_14_5_1_0 = 0
 R709: f0_14_5_1_1 = 0
 R710: f0_14_5_1_2 = 0
 R711: f0_14_5_2_0 = 1
 R712: f0_14_5_2_1 = 0
 R713: f0_14_5_2_2 = 0
 R714: f0_14_5_3_0 = 0
 R715: f0_14_5_3_1 = 0
 R716: f0_14_5_3_2 = 0
 R717: f0_14_6_1_0 = 0
 R718: f0_14_6_1_1 = 0
 R719: f0_14_6_1_2 = 0
 R720: f0_14_6_2_0 = 0
 R721: f0_14_6_2_1 = 1
 R722: f0_14_6_2_2 = 0
 R723: f0_14_6_3_0 = 0
 R724: f0_14_6_3_1 = 0
 R725: f0_14_6_3_2 = 0
 R726: f0_14_7_1_0 = 0
 R727: f0_14_7_1_1 = 0
 R728: f0_14_7_1_2 = 0
 R729: f0_14_7_2_0 = 0
 R730: f0_14_7_2_1 = 0
 R731: f0_14_7_2_2 = 1
 R732: f0_14_7_3_0 = 0
 R733: f0_14_7_3_1 = 0
 R734: f0_14_7_3_2 = 0
 R735: f0_14_8_1_0 = 0
 R736: f0_14_8_1_1 = 0
 R737: f0_14_8_1_2 = 0
 R738: f0_14_8_2_0 = 0
 R739: f0_14_8_2_1 = 0
 R740: f0_14_8_2_2 = 0
 R741: f0_14_8_3_0 = 1
 R742: f0_14_8_3_1 = 0
 R743: f0_14_8_3_2 = 0
 R744: f0_14_9_1_0 = 0
 R745: f0_14_9_1_1 = 0
 R746: f0_14_9_1_2 = 0
 R747: f0_14_9_2_0 = 0
 R748: f0_14_9_2_1 = 0
 R749: f0_14_9_2_2 = 0
 R750: f0_14_9_3_0 = 0
 R751: f0_14_9_3_1 = 1
 R752: f0_14_9_3_2 = 0
 R753: f0_14_10_1_0 = 0
 R754: f0_14_10_1_1 = 0
 R755: f0_14_10_1_2 = 0
 R756: f0_14_10_2_0 = 0
 R757: f0_14_10_2_1 = 0
 R758: f0_14_10_2_2 = 0
 R759: f0_14_10_3_0 = 0
 R760: f0_14_10_3_1 = 0
 R761: f0_14_10_3_2 = 1
 R762: f0_15_0_1_0 = 1
 R763: f0_15_0_1_1 = 0
 R764: f0_15_0_1_2 = 0
 R765: f0_15_0_2_0 = 0
 R766: f0_15_0_2_1 = 0
 R767: f0_15_0_2_2 = 0
 R768: f0_15_0_3_0 = 0
 R769: f0_15_0_3_1 = 0
 R770: f0_15_0_3_2 = 0
 R771: f0_15_0_4_0 = 0
 R772: f0_15_0_4_1 = 0
 R773: f0_15_0_4_2 = 0
 R774: f0_15_1_1_0 = 0
 R775: f0_15_1_1_1 = 1
 R776: f0_15_1_1_2 = 0
 R777: f0_15_1_2_0 = 0
 R778: f0_15_1_2_1 = 0
 R779: f0_15_1_2_2 = 0
 R780: f0_15_1_3_0 = 0
 R781: f0_15_1_3_1 = 0
 R782: f0_15_1_3_2 = 0
 R783: f0_15_1_4_0 = 0
 R784: f0_15_1_4_1 = 0
 R785: f0_15_1_4_2 = 0
 R786: f0_15_2_1_0 = 0
 R787: f0_15_2_1_1 = 0
 R788: f0_15_2_1_2 = 1
 R789: f0_15_2_2_0 = 0
 R790: f0_15_2_2_1 = 0
 R791: f0_15_2_2_2 = 0
 R792: f0_15_2_3_0 = 0
 R793: f0_15_2_3_1 = 0
 R794: f0_15_2_3_2 = 0
 R795: f0_15_2_4_0 = 0
 R796: f0_15_2_4_1 = 0
 R797: f0_15_2_4_2 = 0
 R798: f0_15_3_1_0 = 0
 R799: f0_15_3_1_1 = 0
 R800: f0_15_3_1_2 = 0
 R801: f0_15_3_2_0 = 1
 R802: f0_15_3_2_1 = 0
 R803: f0_15_3_2_2 = 0
 R804: f0_15_3_3_0 = 0
 R805: f0_15_3_3_1 = 0
 R806: f0_15_3_3_2 = 0
 R807: f0_15_3_4_0 = 0
 R808: f0_15_3_4_1 = 0
 R809: f0_15_3_4_2 = 0
 R810: f0_15_4_1_0 = 0
 R811: f0_15_4_1_1 = 0
 R812: f0_15_4_1_2 = 0
 R813: f0_15_4_2_0 = 0
 R814: f0_15_4_2_1 = 1
 R815: f0_15_4_2_2 = 0
 R816: f0_15_4_3_0 = 0
 R817: f0_15_4_3_1 = 0
 R818: f0_15_4_3_2 = 0
 R819: f0_15_4_4_0 = 0
 R820: f0_15_4_4_1 = 0
 R821: f0_15_4_4_2 = 0
 R822: f0_15_5_1_0 = 0
 R823: f0_15_5_1_1 = 0
 R824: f0_15_5_1_2 = 0
 R825: f0_15_5_2_0 = 0
 R826: f0_15_5_2_1 = 0
 R827: f0_15_5_2_2 = 1
 R828: f0_15_5_3_0 = 0
 R829: f0_15_5_3_1 = 0
 R830: f0_15_5_3_2 = 0
 R831: f0_15_5_4_0 = 0
 R832: f0_15_5_4_1 = 0
 R833: f0_15_5_4_2 = 0
 R834: f0_15_6_1_0 = 0
 R835: f0_15_6_1_1 = 0
 R836: f0_15_6_1_2 = 0
 R837: f0_15_6_2_0 = 0
 R838: f0_15_6_2_1 = 0
 R839: f0_15_6_2_2 = 0
 R840: f0_15_6_3_0 = 1
 R841: f0_15_6_3_1 = 0
 R842: f0_15_6_3_2 = 0
 R843: f0_15_6_4_0 = 0
 R844: f0_15_6_4_1 = 0
 R845: f0_15_6_4_2 = 0
 R846: f0_15_7_1_0 = 0
 R847: f0_15_7_1_1 = 0
 R848: f0_15_7_1_2 = 0
 R849: f0_15_7_2_0 = 0
 R850: f0_15_7_2_1 = 0
 R851: f0_15_7_2_2 = 0
 R852: f0_15_7_3_0 = 0
 R853: f0_15_7_3_1 = 1
 R854: f0_15_7_3_2 = 0
 R855: f0_15_7_4_0 = 0
 R856: f0_15_7_4_1 = 0
 R857: f0_15_7_4_2 = 0
 R858: f0_15_8_1_0 = 0
 R859: f0_15_8_1_1 = 0
 R860: f0_15_8_1_2 = 0
 R861: f0_15_8_2_0 = 0
 R862: f0_15_8_2_1 = 0
 R863: f0_15_8_2_2 = 0
 R864: f0_15_8_3_0 = 0
 R865: f0_15_8_3_1 = 0
 R866: f0_15_8_3_2 = 1
 R867: f0_15_8_4_0 = 0
 R868: f0_15_8_4_1 = 0
 R869: f0_15_8_4_2 = 0
 R870: f0_15_9_1_0 = 0
 R871: f0_15_9_1_1 = 0
 R872: f0_15_9_1_2 = 0
 R873: f0_15_9_2_0 = 0
 R874: f0_15_9_2_1 = 0
 R875: f0_15_9_2_2 = 0
 R876: f0_15_9_3_0 = 0
 R877: f0_15_9_3_1 = 0
 R878: f0_15_9_3_2 = 0
 R879: f0_15_9_4_0 = 1
 R880: f0_15_9_4_1 = 0
 R881: f0_15_9_4_2 = 0
 R882: f0_15_10_1_0 = 0
 R883: f0_15_10_1_1 = 0
 R884: f0_15_10_1_2 = 0
 R885: f0_15_10_2_0 = 0
 R886: f0_15_10_2_1 = 0
 R887: f0_15_10_2_2 = 0
 R888: f0_15_10_3_0 = 0
 R889: f0_15_10_3_1 = 0
 R890: f0_15_10_3_2 = 0
 R891: f0_15_10_4_0 = 0
 R892: f0_15_10_4_1 = 1
 R893: f0_15_10_4_2 = 0
 R894: f0_15_11_1_0 = 0
 R895: f0_15_11_1_1 = 0
 R896: f0_15_11_1_2 = 0
 R897: f0_15_11_2_0 = 0
 R898: f0_15_11_2_1 = 0
 R899: f0_15_11_2_2 = 0
 R900: f0_15_11_3_0 = 0
 R901: f0_15_11_3_1 = 0
 R902: f0_15_11_3_2 = 0
 R903: f0_15_11_4_0 = 0
 R904: f0_15_11_4_1 = 0
 R905: f0_15_11_4_2 = 1
 R906: rb0_16_0_0 = 1
 R907: rb0_16_1_0 = 0
 R908: rb0_16_2_0 = 0
 R909: rb0_16_3_0 = 0
 R910: rb0_16_4_0 = 0
 R911: rb0_16_5_0 = 0
 R912: rb0_16_6_0 = 0
 R913: rb0_16_7_0 = 0
 R914: rb0_16_8_0 = 0
 R915: rb0_16_9_0 = 0
 R916: rb0_16_10_0 = 0
 R917: rb0_16_11_0 = 0
 R918: rb0_16_12_0 = 0
 R919: a4c0_16_0_1_0 = 0
 R920: a4c0_16_0_1_1 = 0
 R921: a4c0_16_0_1_2 = 0
 R922: a4c0_16_0_1_3 = 0
 R923: a4c0_16_0_2_0 = 0
 R924: a4c0_16_0_2_1 = 0
 R925: a4c0_16_0_2_2 = 0
 R926: a4c0_16_0_2_3 = 0
 R927: a4c0_16_0_3_0 = 0
 R928: a4c0_16_0_3_1 = 0
 R929: a4c0_16_0_3_2 = 0
 R930: a4c0_16_0_3_3 = 0
 R931: a4c0_16_1_1_0 = 1
 R932: a4c0_16_1_1_1 = 0
 R933: a4c0_16_1_1_2 = 0
 R934: a4c0_16_1_1_3 = 0
 R935: a4c0_16_1_2_0 = 0
 R936: a4c0_16_1_2_1 = 0
 R937: a4c0_16_1_2_2 = 0
 R938: a4c0_16_1_2_3 = 0
 R939: a4c0_16_1_3_0 = 0
 R940: a4c0_16_1_3_1 = 0
 R941: a4c0_16_1_3_2 = 0
 R942: a4c0_16_1_3_3 = 0
 R943: a4c0_16_2_1_0 = 0
 R944: a4c0_16_2_1_1 = 1
 R945: a4c0_16_2_1_2 = 0
 R946: a4c0_16_2_1_3 = 0
 R947: a4c0_16_2_2_0 = 0
 R948: a4c0_16_2_2_1 = 0
 R949: a4c0_16_2_2_2 = 0
 R950: a4c0_16_2_2_3 = 0
 R951: a4c0_16_2_3_0 = 0
 R952: a4c0_16_2_3_1 = 0
 R953: a4c0_16_2_3_2 = 0
 R954: a4c0_16_2_3_3 = 0
 R955: a4c0_16_3_1_0 = 0
 R956: a4c0_16_3_1_1 = 0
 R957: a4c0_16_3_1_2 = 1
 R958: a4c0_16_3_1_3 = 0
 R959: a4c0_16_3_2_0 = 0
 R960: a4c0_16_3_2_1 = 0
 R961: a4c0_16_3_2_2 = 0
 R962: a4c0_16_3_2_3 = 0
 R963: a4c0_16_3_3_0 = 0
 R964: a4c0_16_3_3_1 = 0
 R965: a4c0_16_3_3_2 = 0
 R966: a4c0_16_3_3_3 = 0
 R967: a4c0_16_4_1_0 = 0
 R968: a4c0_16_4_1_1 = 0
 R969: a4c0_16_4_1_2 = 0
 R970: a4c0_16_4_1_3 = 1
 R971: a4c0_16_4_2_0 = 0
 R972: a4c0_16_4_2_1 = 0
 R973: a4c0_16_4_2_2 = 0
 R974: a4c0_16_4_2_3 = 0
 R975: a4c0_16_4_3_0 = 0
 R976: a4c0_16_4_3_1 = 0
 R977: a4c0_16_4_3_2 = 0
 R978: a4c0_16_4_3_3 = 0
 R979: a4c0_16_5_1_0 = 0
 R980: a4c0_16_5_1_1 = 0
 R981: a4c0_16_5_1_2 = 0
 R982: a4c0_16_5_1_3 = 0
 R983: a4c0_16_5_2_0 = 1
 R984: a4c0_16_5_2_1 = 0
 R985: a4c0_16_5_2_2 = 0
 R986: a4c0_16_5_2_3 = 0
 R987: a4c0_16_5_3_0 = 0
 R988: a4c0_16_5_3_1 = 0
 R989: a4c0_16_5_3_2 = 0
 R990: a4c0_16_5_3_3 = 0
 R991: a4c0_16_6_1_0 = 0
 R992: a4c0_16_6_1_1 = 0
 R993: a4c0_16_6_1_2 = 0
 R994: a4c0_16_6_1_3 = 0
 R995: a4c0_16_6_2_0 = 0
 R996: a4c0_16_6_2_1 = 1
 R997: a4c0_16_6_2_2 = 0
 R998: a4c0_16_6_2_3 = 0
 R999: a4c0_16_6_3_0 = 0
 R1000: a4c0_16_6_3_1 = 0
 R1001: a4c0_16_6_3_2 = 0
 R1002: a4c0_16_6_3_3 = 0
 R1003: a4c0_16_7_1_0 = 0
 R1004: a4c0_16_7_1_1 = 0
 R1005: a4c0_16_7_1_2 = 0
 R1006: a4c0_16_7_1_3 = 0
 R1007: a4c0_16_7_2_0 = 0
 R1008: a4c0_16_7_2_1 = 0
 R1009: a4c0_16_7_2_2 = 1
 R1010: a4c0_16_7_2_3 = 0
 R1011: a4c0_16_7_3_0 = 0
 R1012: a4c0_16_7_3_1 = 0
 R1013: a4c0_16_7_3_2 = 0
 R1014: a4c0_16_7_3_3 = 0
 R1015: a4c0_16_8_1_0 = 0
 R1016: a4c0_16_8_1_1 = 0
 R1017: a4c0_16_8_1_2 = 0
 R1018: a4c0_16_8_1_3 = 0
 R1019: a4c0_16_8_2_0 = 0
 R1020: a4c0_16_8_2_1 = 0
 R1021: a4c0_16_8_2_2 = 0
 R1022: a4c0_16_8_2_3 = 1
 R1023: a4c0_16_8_3_0 = 0
 R1024: a4c0_16_8_3_1 = 0
 R1025: a4c0_16_8_3_2 = 0
 R1026: a4c0_16_8_3_3 = 0
 R1027: a4c0_16_9_1_0 = 0
 R1028: a4c0_16_9_1_1 = 0
 R1029: a4c0_16_9_1_2 = 0
 R1030: a4c0_16_9_1_3 = 0
 R1031: a4c0_16_9_2_0 = 0
 R1032: a4c0_16_9_2_1 = 0
 R1033: a4c0_16_9_2_2 = 0
 R1034: a4c0_16_9_2_3 = 0
 R1035: a4c0_16_9_3_0 = 1
 R1036: a4c0_16_9_3_1 = 0
 R1037: a4c0_16_9_3_2 = 0
 R1038: a4c0_16_9_3_3 = 0
 R1039: a4c0_16_10_1_0 = 0
 R1040: a4c0_16_10_1_1 = 0
 R1041: a4c0_16_10_1_2 = 0
 R1042: a4c0_16_10_1_3 = 0
 R1043: a4c0_16_10_2_0 = 0
 R1044: a4c0_16_10_2_1 = 0
 R1045: a4c0_16_10_2_2 = 0
 R1046: a4c0_16_10_2_3 = 0
 R1047: a4c0_16_10_3_0 = 0
 R1048: a4c0_16_10_3_1 = 1
 R1049: a4c0_16_10_3_2 = 0
 R1050: a4c0_16_10_3_3 = 0
 R1051: a4c0_16_11_1_0 = 0
 R1052: a4c0_16_11_1_1 = 0
 R1053: a4c0_16_11_1_2 = 0
 R1054: a4c0_16_11_1_3 = 0
 R1055: a4c0_16_11_2_0 = 0
 R1056: a4c0_16_11_2_1 = 0
 R1057: a4c0_16_11_2_2 = 0
 R1058: a4c0_16_11_2_3 = 0
 R1059: a4c0_16_11_3_0 = 0
 R1060: a4c0_16_11_3_1 = 0
 R1061: a4c0_16_11_3_2 = 1
 R1062: a4c0_16_11_3_3 = 0
 R1063: a4c0_16_12_1_0 = 0
 R1064: a4c0_16_12_1_1 = 0
 R1065: a4c0_16_12_1_2 = 0
 R1066: a4c0_16_12_1_3 = 0
 R1067: a4c0_16_12_2_0 = 0
 R1068: a4c0_16_12_2_1 = 0
 R1069: a4c0_16_12_2_2 = 0
 R1070: a4c0_16_12_2_3 = 0
 R1071: a4c0_16_12_3_0 = 0
 R1072: a4c0_16_12_3_1 = 0
 R1073: a4c0_16_12_3_2 = 0
 R1074: a4c0_16_12_3_3 = 1
 R1075: rb0_17_0_0 = 1
 R1076: rb0_17_0_1 = 0
 R1077: rb0_17_0_2 = 0
 R1078: rb0_17_1_0 = 0
 R1079: rb0_17_1_1 = 1
 R1080: rb0_17_1_2 = 0
 R1081: rb0_17_2_0 = 0
 R1082: rb0_17_2_1 = 0
 R1083: rb0_17_2_2 = 1
 R1084: rb0_17_3_0 = 0
 R1085: rb0_17_3_1 = 0
 R1086: rb0_17_3_2 = 0
 R1087: rb0_17_4_0 = 0
 R1088: rb0_17_4_1 = 0
 R1089: rb0_17_4_2 = 0
 R1090: rb0_17_5_0 = 0
 R1091: rb0_17_5_1 = 0
 R1092: rb0_17_5_2 = 0
 R1093: rb0_17_6_0 = 0
 R1094: rb0_17_6_1 = 0
 R1095: rb0_17_6_2 = 0
 R1096: rb0_17_7_0 = 0
 R1097: rb0_17_7_1 = 0
 R1098: rb0_17_7_2 = 0
 R1099: rb0_17_8_0 = 0
 R1100: rb0_17_8_1 = 0
 R1101: rb0_17_8_2 = 0
 R1102: rb0_17_9_0 = 0
 R1103: rb0_17_9_1 = 0
 R1104: rb0_17_9_2 = 0
 R1105: rb0_17_10_0 = 0
 R1106: rb0_17_10_1 = 0
 R1107: rb0_17_10_2 = 0
 R1108: rb0_17_11_0 = 0
 R1109: rb0_17_11_1 = 0
 R1110: rb0_17_11_2 = 0
 R1111: rb0_17_12_0 = 0
 R1112: rb0_17_12_1 = 0
 R1113: rb0_17_12_2 = 0
 R1114: rb0_17_13_0 = 0
 R1115: rb0_17_13_1 = 0
 R1116: rb0_17_13_2 = 0
 R1117: a4c0_17_0_1_0 = 0
 R1118: a4c0_17_0_1_1 = 0
 R1119: a4c0_17_0_1_2 = 0
 R1120: a4c0_17_0_1_3 = 0
 R1121: a4c0_17_0_2_0 = 0
 R1122: a4c0_17_0_2_1 = 0
 R1123: a4c0_17_0_2_2 = 0
 R1124: a4c0_17_0_2_3 = 0
 R1125: a4c0_17_1_1_0 = 0
 R1126: a4c0_17_1_1_1 = 0
 R1127: a4c0_17_1_1_2 = 0
 R1128: a4c0_17_1_1_3 = 0
 R1129: a4c0_17_1_2_0 = 0
 R1130: a4c0_17_1_2_1 = 0
 R1131: a4c0_17_1_2_2 = 0
 R1132: a4c0_17_1_2_3 = 0
 R1133: a4c0_17_2_1_0 = 0
 R1134: a4c0_17_2_1_1 = 0
 R1135: a4c0_17_2_1_2 = 0
 R1136: a4c0_17_2_1_3 = 0
 R1137: a4c0_17_2_2_0 = 0
 R1138: a4c0_17_2_2_1 = 0
 R1139: a4c0_17_2_2_2 = 0
 R1140: a4c0_17_2_2_3 = 0
 R1141: a4c0_17_3_1_0 = 1
 R1142: a4c0_17_3_1_1 = 0
 R1143: a4c0_17_3_1_2 = 0
 R1144: a4c0_17_3_1_3 = 0
 R1145: a4c0_17_3_2_0 = 0
 R1146: a4c0_17_3_2_1 = 0
 R1147: a4c0_17_3_2_2 = 0
 R1148: a4c0_17_3_2_3 = 0
 R1149: a4c0_17_4_1_0 = 0
 R1150: a4c0_17_4_1_1 = 1
 R1151: a4c0_17_4_1_2 = 0
 R1152: a4c0_17_4_1_3 = 0
 R1153: a4c0_17_4_2_0 = 0
 R1154: a4c0_17_4_2_1 = 0
 R1155: a4c0_17_4_2_2 = 0
 R1156: a4c0_17_4_2_3 = 0
 R1157: a4c0_17_5_1_0 = 0
 R1158: a4c0_17_5_1_1 = 0
 R1159: a4c0_17_5_1_2 = 1
 R1160: a4c0_17_5_1_3 = 0
 R1161: a4c0_17_5_2_0 = 0
 R1162: a4c0_17_5_2_1 = 0
 R1163: a4c0_17_5_2_2 = 0
 R1164: a4c0_17_5_2_3 = 0
 R1165: a4c0_17_6_1_0 = 0
 R1166: a4c0_17_6_1_1 = 0
 R1167: a4c0_17_6_1_2 = 0
 R1168: a4c0_17_6_1_3 = 1
 R1169: a4c0_17_6_2_0 = 0
 R1170: a4c0_17_6_2_1 = 0
 R1171: a4c0_17_6_2_2 = 0
 R1172: a4c0_17_6_2_3 = 0
 R1173: a4c0_17_7_1_0 = 0
 R1174: a4c0_17_7_1_1 = 0
 R1175: a4c0_17_7_1_2 = 0
 R1176: a4c0_17_7_1_3 = 0
 R1177: a4c0_17_7_2_0 = 1
 R1178: a4c0_17_7_2_1 = 0
 R1179: a4c0_17_7_2_2 = 0
 R1180: a4c0_17_7_2_3 = 0
 R1181: a4c0_17_8_1_0 = 0
 R1182: a4c0_17_8_1_1 = 0
 R1183: a4c0_17_8_1_2 = 0
 R1184: a4c0_17_8_1_3 = 0
 R1185: a4c0_17_8_2_0 = 0
 R1186: a4c0_17_8_2_1 = 1
 R1187: a4c0_17_8_2_2 = 0
 R1188: a4c0_17_8_2_3 = 0
 R1189: a4c0_17_9_1_0 = 0
 R1190: a4c0_17_9_1_1 = 0
 R1191: a4c0_17_9_1_2 = 0
 R1192: a4c0_17_9_1_3 = 0
 R1193: a4c0_17_9_2_0 = 0
 R1194: a4c0_17_9_2_1 = 0
 R1195: a4c0_17_9_2_2 = 1
 R1196: a4c0_17_9_2_3 = 0
 R1197: a4c0_17_10_1_0 = 0
 R1198: a4c0_17_10_1_1 = 0
 R1199: a4c0_17_10_1_2 = 0
 R1200: a4c0_17_10_1_3 = 0
 R1201: a4c0_17_10_2_0 = 0
 R1202: a4c0_17_10_2_1 = 0
 R1203: a4c0_17_10_2_2 = 0
 R1204: a4c0_17_10_2_3 = 1
 R1205: a4c0_17_11_1_0 = 0
 R1206: a4c0_17_11_1_1 = 0
 R1207: a4c0_17_11_1_2 = 0
 R1208: a4c0_17_11_1_3 = 0
 R1209: a4c0_17_11_2_0 = 0
 R1210: a4c0_17_11_2_1 = 0
 R1211: a4c0_17_11_2_2 = 0
 R1212: a4c0_17_11_2_3 = 0
 R1213: a4c0_17_12_1_0 = 0
 R1214: a4c0_17_12_1_1 = 0
 R1215: a4c0_17_12_1_2 = 0
 R1216: a4c0_17_12_1_3 = 0
 R1217: a4c0_17_12_2_0 = 0
 R1218: a4c0_17_12_2_1 = 0
 R1219: a4c0_17_12_2_2 = 0
 R1220: a4c0_17_12_2_3 = 0
 R1221: a4c0_17_13_1_0 = 0
 R1222: a4c0_17_13_1_1 = 0
 R1223: a4c0_17_13_1_2 = 0
 R1224: a4c0_17_13_1_3 = 0
 R1225: a4c0_17_13_2_0 = 0
 R1226: a4c0_17_13_2_1 = 0
 R1227: a4c0_17_13_2_2 = 0
 R1228: a4c0_17_13_2_3 = 0
 R1229: a3c0_17_0_1_0 = 0
 R1230: a3c0_17_0_1_1 = 0
 R1231: a3c0_17_0_1_2 = 0
 R1232: a3c0_17_1_1_0 = 0
 R1233: a3c0_17_1_1_1 = 0
 R1234: a3c0_17_1_1_2 = 0
 R1235: a3c0_17_2_1_0 = 0
 R1236: a3c0_17_2_1_1 = 0
 R1237: a3c0_17_2_1_2 = 0
 R1238: a3c0_17_3_1_0 = 0
 R1239: a3c0_17_3_1_1 = 0
 R1240: a3c0_17_3_1_2 = 0
 R1241: a3c0_17_4_1_0 = 0
 R1242: a3c0_17_4_1_1 = 0
 R1243: a3c0_17_4_1_2 = 0
 R1244: a3c0_17_5_1_0 = 0
 R1245: a3c0_17_5_1_1 = 0
 R1246: a3c0_17_5_1_2 = 0
 R1247: a3c0_17_6_1_0 = 0
 R1248: a3c0_17_6_1_1 = 0
 R1249: a3c0_17_6_1_2 = 0
 R1250: a3c0_17_7_1_0 = 0
 R1251: a3c0_17_7_1_1 = 0
 R1252: a3c0_17_7_1_2 = 0
 R1253: a3c0_17_8_1_0 = 0
 R1254: a3c0_17_8_1_1 = 0
 R1255: a3c0_17_8_1_2 = 0
 R1256: a3c0_17_9_1_0 = 0
 R1257: a3c0_17_9_1_1 = 0
 R1258: a3c0_17_9_1_2 = 0
 R1259: a3c0_17_10_1_0 = 0
 R1260: a3c0_17_10_1_1 = 0
 R1261: a3c0_17_10_1_2 = 0
 R1262: a3c0_17_11_1_0 = 1
 R1263: a3c0_17_11_1_1 = 0
 R1264: a3c0_17_11_1_2 = 0
 R1265: a3c0_17_12_1_0 = 0
 R1266: a3c0_17_12_1_1 = 1
 R1267: a3c0_17_12_1_2 = 0
 R1268: a3c0_17_13_1_0 = 0
 R1269: a3c0_17_13_1_1 = 0
 R1270: a3c0_17_13_1_2 = 1
 R1271: a4c0_18_0_1_0 = 1
 R1272: a4c0_18_0_1_1 = 0
 R1273: a4c0_18_0_1_2 = 0
 R1274: a4c0_18_0_1_3 = 0
 R1275: a4c0_18_0_2_0 = 0
 R1276: a4c0_18_0_2_1 = 0
 R1277: a4c0_18_0_2_2 = 0
 R1278: a4c0_18_0_2_3 = 0
 R1279: a4c0_18_0_3_0 = 0
 R1280: a4c0_18_0_3_1 = 0
 R1281: a4c0_18_0_3_2 = 0
 R1282: a4c0_18_0_3_3 = 0
 R1283: a4c0_18_1_1_0 = 0
 R1284: a4c0_18_1_1_1 = 1
 R1285: a4c0_18_1_1_2 = 0
 R1286: a4c0_18_1_1_3 = 0
 R1287: a4c0_18_1_2_0 = 0
 R1288: a4c0_18_1_2_1 = 0
 R1289: a4c0_18_1_2_2 = 0
 R1290: a4c0_18_1_2_3 = 0
 R1291: a4c0_18_1_3_0 = 0
 R1292: a4c0_18_1_3_1 = 0
 R1293: a4c0_18_1_3_2 = 0
 R1294: a4c0_18_1_3_3 = 0
 R1295: a4c0_18_2_1_0 = 0
 R1296: a4c0_18_2_1_1 = 0
 R1297: a4c0_18_2_1_2 = 1
 R1298: a4c0_18_2_1_3 = 0
 R1299: a4c0_18_2_2_0 = 0
 R1300: a4c0_18_2_2_1 = 0
 R1301: a4c0_18_2_2_2 = 0
 R1302: a4c0_18_2_2_3 = 0
 R1303: a4c0_18_2_3_0 = 0
 R1304: a4c0_18_2_3_1 = 0
 R1305: a4c0_18_2_3_2 = 0
 R1306: a4c0_18_2_3_3 = 0
 R1307: a4c0_18_3_1_0 = 0
 R1308: a4c0_18_3_1_1 = 0
 R1309: a4c0_18_3_1_2 = 0
 R1310: a4c0_18_3_1_3 = 1
 R1311: a4c0_18_3_2_0 = 0
 R1312: a4c0_18_3_2_1 = 0
 R1313: a4c0_18_3_2_2 = 0
 R1314: a4c0_18_3_2_3 = 0
 R1315: a4c0_18_3_3_0 = 0
 R1316: a4c0_18_3_3_1 = 0
 R1317: a4c0_18_3_3_2 = 0
 R1318: a4c0_18_3_3_3 = 0
 R1319: a4c0_18_4_1_0 = 0
 R1320: a4c0_18_4_1_1 = 0
 R1321: a4c0_18_4_1_2 = 0
 R1322: a4c0_18_4_1_3 = 0
 R1323: a4c0_18_4_2_0 = 1
 R1324: a4c0_18_4_2_1 = 0
 R1325: a4c0_18_4_2_2 = 0
 R1326: a4c0_18_4_2_3 = 0
 R1327: a4c0_18_4_3_0 = 0
 R1328: a4c0_18_4_3_1 = 0
 R1329: a4c0_18_4_3_2 = 0
 R1330: a4c0_18_4_3_3 = 0
 R1331: a4c0_18_5_1_0 = 0
 R1332: a4c0_18_5_1_1 = 0
 R1333: a4c0_18_5_1_2 = 0
 R1334: a4c0_18_5_1_3 = 0
 R1335: a4c0_18_5_2_0 = 0
 R1336: a4c0_18_5_2_1 = 1
 R1337: a4c0_18_5_2_2 = 0
 R1338: a4c0_18_5_2_3 = 0
 R1339: a4c0_18_5_3_0 = 0
 R1340: a4c0_18_5_3_1 = 0
 R1341: a4c0_18_5_3_2 = 0
 R1342: a4c0_18_5_3_3 = 0
 R1343: a4c0_18_6_1_0 = 0
 R1344: a4c0_18_6_1_1 = 0
 R1345: a4c0_18_6_1_2 = 0
 R1346: a4c0_18_6_1_3 = 0
 R1347: a4c0_18_6_2_0 = 0
 R1348: a4c0_18_6_2_1 = 0
 R1349: a4c0_18_6_2_2 = 1
 R1350: a4c0_18_6_2_3 = 0
 R1351: a4c0_18_6_3_0 = 0
 R1352: a4c0_18_6_3_1 = 0
 R1353: a4c0_18_6_3_2 = 0
 R1354: a4c0_18_6_3_3 = 0
 R1355: a4c0_18_7_1_0 = 0
 R1356: a4c0_18_7_1_1 = 0
 R1357: a4c0_18_7_1_2 = 0
 R1358: a4c0_18_7_1_3 = 0
 R1359: a4c0_18_7_2_0 = 0
 R1360: a4c0_18_7_2_1 = 0
 R1361: a4c0_18_7_2_2 = 0
 R1362: a4c0_18_7_2_3 = 1
 R1363: a4c0_18_7_3_0 = 0
 R1364: a4c0_18_7_3_1 = 0
 R1365: a4c0_18_7_3_2 = 0
 R1366: a4c0_18_7_3_3 = 0
 R1367: a4c0_18_8_1_0 = 0
 R1368: a4c0_18_8_1_1 = 0
 R1369: a4c0_18_8_1_2 = 0
 R1370: a4c0_18_8_1_3 = 0
 R1371: a4c0_18_8_2_0 = 0
 R1372: a4c0_18_8_2_1 = 0
 R1373: a4c0_18_8_2_2 = 0
 R1374: a4c0_18_8_2_3 = 0
 R1375: a4c0_18_8_3_0 = 1
 R1376: a4c0_18_8_3_1 = 0
 R1377: a4c0_18_8_3_2 = 0
 R1378: a4c0_18_8_3_3 = 0
 R1379: a4c0_18_9_1_0 = 0
 R1380: a4c0_18_9_1_1 = 0
 R1381: a4c0_18_9_1_2 = 0
 R1382: a4c0_18_9_1_3 = 0
 R1383: a4c0_18_9_2_0 = 0
 R1384: a4c0_18_9_2_1 = 0
 R1385: a4c0_18_9_2_2 = 0
 R1386: a4c0_18_9_2_3 = 0
 R1387: a4c0_18_9_3_0 = 0
 R1388: a4c0_18_9_3_1 = 1
 R1389: a4c0_18_9_3_2 = 0
 R1390: a4c0_18_9_3_3 = 0
 R1391: a4c0_18_10_1_0 = 0
 R1392: a4c0_18_10_1_1 = 0
 R1393: a4c0_18_10_1_2 = 0
 R1394: a4c0_18_10_1_3 = 0
 R1395: a4c0_18_10_2_0 = 0
 R1396: a4c0_18_10_2_1 = 0
 R1397: a4c0_18_10_2_2 = 0
 R1398: a4c0_18_10_2_3 = 0
 R1399: a4c0_18_10_3_0 = 0
 R1400: a4c0_18_10_3_1 = 0
 R1401: a4c0_18_10_3_2 = 1
 R1402: a4c0_18_10_3_3 = 0
 R1403: a4c0_18_11_1_0 = 0
 R1404: a4c0_18_11_1_1 = 0
 R1405: a4c0_18_11_1_2 = 0
 R1406: a4c0_18_11_1_3 = 0
 R1407: a4c0_18_11_2_0 = 0
 R1408: a4c0_18_11_2_1 = 0
 R1409: a4c0_18_11_2_2 = 0
 R1410: a4c0_18_11_2_3 = 0
 R1411: a4c0_18_11_3_0 = 0
 R1412: a4c0_18_11_3_1 = 0
 R1413: a4c0_18_11_3_2 = 0
 R1414: a4c0_18_11_3_3 = 1
 R1415: a4c0_18_12_1_0 = 0
 R1416: a4c0_18_12_1_1 = 0
 R1417: a4c0_18_12_1_2 = 0
 R1418: a4c0_18_12_1_3 = 0
 R1419: a4c0_18_12_2_0 = 0
 R1420: a4c0_18_12_2_1 = 0
 R1421: a4c0_18_12_2_2 = 0
 R1422: a4c0_18_12_2_3 = 0
 R1423: a4c0_18_12_3_0 = 0
 R1424: a4c0_18_12_3_1 = 0
 R1425: a4c0_18_12_3_2 = 0
 R1426: a4c0_18_12_3_3 = 0
 R1427: a4c0_18_13_1_0 = 0
 R1428: a4c0_18_13_1_1 = 0
 R1429: a4c0_18_13_1_2 = 0
 R1430: a4c0_18_13_1_3 = 0
 R1431: a4c0_18_13_2_0 = 0
 R1432: a4c0_18_13_2_1 = 0
 R1433: a4c0_18_13_2_2 = 0
 R1434: a4c0_18_13_2_3 = 0
 R1435: a4c0_18_13_3_0 = 0
 R1436: a4c0_18_13_3_1 = 0
 R1437: a4c0_18_13_3_2 = 0
 R1438: a4c0_18_13_3_3 = 0
 R1439: a4c0_18_14_1_0 = 0
 R1440: a4c0_18_14_1_1 = 0
 R1441: a4c0_18_14_1_2 = 0
 R1442: a4c0_18_14_1_3 = 0
 R1443: a4c0_18_14_2_0 = 0
 R1444: a4c0_18_14_2_1 = 0
 R1445: a4c0_18_14_2_2 = 0
 R1446: a4c0_18_14_2_3 = 0
 R1447: a4c0_18_14_3_0 = 0
 R1448: a4c0_18_14_3_1 = 0
 R1449: a4c0_18_14_3_2 = 0
 R1450: a4c0_18_14_3_3 = 0
 R1451: a3c0_18_0_1_0 = 0
 R1452: a3c0_18_0_1_1 = 0
 R1453: a3c0_18_0_1_2 = 0
 R1454: a3c0_18_1_1_0 = 0
 R1455: a3c0_18_1_1_1 = 0
 R1456: a3c0_18_1_1_2 = 0
 R1457: a3c0_18_2_1_0 = 0
 R1458: a3c0_18_2_1_1 = 0
 R1459: a3c0_18_2_1_2 = 0
 R1460: a3c0_18_3_1_0 = 0
 R1461: a3c0_18_3_1_1 = 0
 R1462: a3c0_18_3_1_2 = 0
 R1463: a3c0_18_4_1_0 = 0
 R1464: a3c0_18_4_1_1 = 0
 R1465: a3c0_18_4_1_2 = 0
 R1466: a3c0_18_5_1_0 = 0
 R1467: a3c0_18_5_1_1 = 0
 R1468: a3c0_18_5_1_2 = 0
 R1469: a3c0_18_6_1_0 = 0
 R1470: a3c0_18_6_1_1 = 0
 R1471: a3c0_18_6_1_2 = 0
 R1472: a3c0_18_7_1_0 = 0
 R1473: a3c0_18_7_1_1 = 0
 R1474: a3c0_18_7_1_2 = 0
 R1475: a3c0_18_8_1_0 = 0
 R1476: a3c0_18_8_1_1 = 0
 R1477: a3c0_18_8_1_2 = 0
 R1478: a3c0_18_9_1_0 = 0
 R1479: a3c0_18_9_1_1 = 0
 R1480: a3c0_18_9_1_2 = 0
 R1481: a3c0_18_10_1_0 = 0
 R1482: a3c0_18_10_1_1 = 0
 R1483: a3c0_18_10_1_2 = 0
 R1484: a3c0_18_11_1_0 = 0
 R1485: a3c0_18_11_1_1 = 0
 R1486: a3c0_18_11_1_2 = 0
 R1487: a3c0_18_12_1_0 = 1
 R1488: a3c0_18_12_1_1 = 0
 R1489: a3c0_18_12_1_2 = 0
 R1490: a3c0_18_13_1_0 = 0
 R1491: a3c0_18_13_1_1 = 1
 R1492: a3c0_18_13_1_2 = 0
 R1493: a3c0_18_14_1_0 = 0
 R1494: a3c0_18_14_1_1 = 0
 R1495: a3c0_18_14_1_2 = 1
 R1496: a4c0_19_0_1_0 = 1
 R1497: a4c0_19_0_1_1 = 0
 R1498: a4c0_19_0_1_2 = 0
 R1499: a4c0_19_0_1_3 = 0
 R1500: a4c0_19_0_2_0 = 0
 R1501: a4c0_19_0_2_1 = 0
 R1502: a4c0_19_0_2_2 = 0
 R1503: a4c0_19_0_2_3 = 0
 R1504: a4c0_19_0_3_0 = 0
 R1505: a4c0_19_0_3_1 = 0
 R1506: a4c0_19_0_3_2 = 0
 R1507: a4c0_19_0_3_3 = 0
 R1508: a4c0_19_0_4_0 = 0
 R1509: a4c0_19_0_4_1 = 0
 R1510: a4c0_19_0_4_2 = 0
 R1511: a4c0_19_0_4_3 = 0
 R1512: a4c0_19_1_1_0 = 0
 R1513: a4c0_19_1_1_1 = 1
 R1514: a4c0_19_1_1_2 = 0
 R1515: a4c0_19_1_1_3 = 0
 R1516: a4c0_19_1_2_0 = 0
 R1517: a4c0_19_1_2_1 = 0
 R1518: a4c0_19_1_2_2 = 0
 R1519: a4c0_19_1_2_3 = 0
 R1520: a4c0_19_1_3_0 = 0
 R1521: a4c0_19_1_3_1 = 0
 R1522: a4c0_19_1_3_2 = 0
 R1523: a4c0_19_1_3_3 = 0
 R1524: a4c0_19_1_4_0 = 0
 R1525: a4c0_19_1_4_1 = 0
 R1526: a4c0_19_1_4_2 = 0
 R1527: a4c0_19_1_4_3 = 0
 R1528: a4c0_19_2_1_0 = 0
 R1529: a4c0_19_2_1_1 = 0
 R1530: a4c0_19_2_1_2 = 1
 R1531: a4c0_19_2_1_3 = 0
 R1532: a4c0_19_2_2_0 = 0
 R1533: a4c0_19_2_2_1 = 0
 R1534: a4c0_19_2_2_2 = 0
 R1535: a4c0_19_2_2_3 = 0
 R1536: a4c0_19_2_3_0 = 0
 R1537: a4c0_19_2_3_1 = 0
 R1538: a4c0_19_2_3_2 = 0
 R1539: a4c0_19_2_3_3 = 0
 R1540: a4c0_19_2_4_0 = 0
 R1541: a4c0_19_2_4_1 = 0
 R1542: a4c0_19_2_4_2 = 0
 R1543: a4c0_19_2_4_3 = 0
 R1544: a4c0_19_3_1_0 = 0
 R1545: a4c0_19_3_1_1 = 0
 R1546: a4c0_19_3_1_2 = 0
 R1547: a4c0_19_3_1_3 = 1
 R1548: a4c0_19_3_2_0 = 0
 R1549: a4c0_19_3_2_1 = 0
 R1550: a4c0_19_3_2_2 = 0
 R1551: a4c0_19_3_2_3 = 0
 R1552: a4c0_19_3_3_0 = 0
 R1553: a4c0_19_3_3_1 = 0
 R1554: a4c0_19_3_3_2 = 0
 R1555: a4c0_19_3_3_3 = 0
 R1556: a4c0_19_3_4_0 = 0
 R1557: a4c0_19_3_4_1 = 0
 R1558: a4c0_19_3_4_2 = 0
 R1559: a4c0_19_3_4_3 = 0
 R1560: a4c0_19_4_1_0 = 0
 R1561: a4c0_19_4_1_1 = 0
 R1562: a4c0_19_4_1_2 = 0
 R1563: a4c0_19_4_1_3 = 0
 R1564: a4c0_19_4_2_0 = 1
 R1565: a4c0_19_4_2_1 = 0
 R1566: a4c0_19_4_2_2 = 0
 R1567: a4c0_19_4_2_3 = 0
 R1568: a4c0_19_4_3_0 = 0
 R1569: a4c0_19_4_3_1 = 0
 R1570: a4c0_19_4_3_2 = 0
 R1571: a4c0_19_4_3_3 = 0
 R1572: a4c0_19_4_4_0 = 0
 R1573: a4c0_19_4_4_1 = 0
 R1574: a4c0_19_4_4_2 = 0
 R1575: a4c0_19_4_4_3 = 0
 R1576: a4c0_19_5_1_0 = 0
 R1577: a4c0_19_5_1_1 = 0
 R1578: a4c0_19_5_1_2 = 0
 R1579: a4c0_19_5_1_3 = 0
 R1580: a4c0_19_5_2_0 = 0
 R1581: a4c0_19_5_2_1 = 1
 R1582: a4c0_19_5_2_2 = 0
 R1583: a4c0_19_5_2_3 = 0
 R1584: a4c0_19_5_3_0 = 0
 R1585: a4c0_19_5_3_1 = 0
 R1586: a4c0_19_5_3_2 = 0
 R1587: a4c0_19_5_3_3 = 0
 R1588: a4c0_19_5_4_0 = 0
 R1589: a4c0_19_5_4_1 = 0
 R1590: a4c0_19_5_4_2 = 0
 R1591: a4c0_19_5_4_3 = 0
 R1592: a4c0_19_6_1_0 = 0
 R1593: a4c0_19_6_1_1 = 0
 R1594: a4c0_19_6_1_2 = 0
 R1595: a4c0_19_6_1_3 = 0
 R1596: a4c0_19_6_2_0 = 0
 R1597: a4c0_19_6_2_1 = 0
 R1598: a4c0_19_6_2_2 = 1
 R1599: a4c0_19_6_2_3 = 0
 R1600: a4c0_19_6_3_0 = 0
 R1601: a4c0_19_6_3_1 = 0
 R1602: a4c0_19_6_3_2 = 0
 R1603: a4c0_19_6_3_3 = 0
 R1604: a4c0_19_6_4_0 = 0
 R1605: a4c0_19_6_4_1 = 0
 R1606: a4c0_19_6_4_2 = 0
 R1607: a4c0_19_6_4_3 = 0
 R1608: a4c0_19_7_1_0 = 0
 R1609: a4c0_19_7_1_1 = 0
 R1610: a4c0_19_7_1_2 = 0
 R1611: a4c0_19_7_1_3 = 0
 R1612: a4c0_19_7_2_0 = 0
 R1613: a4c0_19_7_2_1 = 0
 R1614: a4c0_19_7_2_2 = 0
 R1615: a4c0_19_7_2_3 = 1
 R1616: a4c0_19_7_3_0 = 0
 R1617: a4c0_19_7_3_1 = 0
 R1618: a4c0_19_7_3_2 = 0
 R1619: a4c0_19_7_3_3 = 0
 R1620: a4c0_19_7_4_0 = 0
 R1621: a4c0_19_7_4_1 = 0
 R1622: a4c0_19_7_4_2 = 0
 R1623: a4c0_19_7_4_3 = 0
 R1624: a4c0_19_8_1_0 = 0
 R1625: a4c0_19_8_1_1 = 0
 R1626: a4c0_19_8_1_2 = 0
 R1627: a4c0_19_8_1_3 = 0
 R1628: a4c0_19_8_2_0 = 0
 R1629: a4c0_19_8_2_1 = 0
 R1630: a4c0_19_8_2_2 = 0
 R1631: a4c0_19_8_2_3 = 0
 R1632: a4c0_19_8_3_0 = 1
 R1633: a4c0_19_8_3_1 = 0
 R1634: a4c0_19_8_3_2 = 0
 R1635: a4c0_19_8_3_3 = 0
 R1636: a4c0_19_8_4_0 = 0
 R1637: a4c0_19_8_4_1 = 0
 R1638: a4c0_19_8_4_2 = 0
 R1639: a4c0_19_8_4_3 = 0
 R1640: a4c0_19_9_1_0 = 0
 R1641: a4c0_19_9_1_1 = 0
 R1642: a4c0_19_9_1_2 = 0
 R1643: a4c0_19_9_1_3 = 0
 R1644: a4c0_19_9_2_0 = 0
 R1645: a4c0_19_9_2_1 = 0
 R1646: a4c0_19_9_2_2 = 0
 R1647: a4c0_19_9_2_3 = 0
 R1648: a4c0_19_9_3_0 = 0
 R1649: a4c0_19_9_3_1 = 1
 R1650: a4c0_19_9_3_2 = 0
 R1651: a4c0_19_9_3_3 = 0
 R1652: a4c0_19_9_4_0 = 0
 R1653: a4c0_19_9_4_1 = 0
 R1654: a4c0_19_9_4_2 = 0
 R1655: a4c0_19_9_4_3 = 0
 R1656: a4c0_19_10_1_0 = 0
 R1657: a4c0_19_10_1_1 = 0
 R1658: a4c0_19_10_1_2 = 0
 R1659: a4c0_19_10_1_3 = 0
 R1660: a4c0_19_10_2_0 = 0
 R1661: a4c0_19_10_2_1 = 0
 R1662: a4c0_19_10_2_2 = 0
 R1663: a4c0_19_10_2_3 = 0
 R1664: a4c0_19_10_3_0 = 0
 R1665: a4c0_19_10_3_1 = 0
 R1666: a4c0_19_10_3_2 = 1
 R1667: a4c0_19_10_3_3 = 0
 R1668: a4c0_19_10_4_0 = 0
 R1669: a4c0_19_10_4_1 = 0
 R1670: a4c0_19_10_4_2 = 0
 R1671: a4c0_19_10_4_3 = 0
 R1672: a4c0_19_11_1_0 = 0
 R1673: a4c0_19_11_1_1 = 0
 R1674: a4c0_19_11_1_2 = 0
 R1675: a4c0_19_11_1_3 = 0
 R1676: a4c0_19_11_2_0 = 0
 R1677: a4c0_19_11_2_1 = 0
 R1678: a4c0_19_11_2_2 = 0
 R1679: a4c0_19_11_2_3 = 0
 R1680: a4c0_19_11_3_0 = 0
 R1681: a4c0_19_11_3_1 = 0
 R1682: a4c0_19_11_3_2 = 0
 R1683: a4c0_19_11_3_3 = 1
 R1684: a4c0_19_11_4_0 = 0
 R1685: a4c0_19_11_4_1 = 0
 R1686: a4c0_19_11_4_2 = 0
 R1687: a4c0_19_11_4_3 = 0
 R1688: a4c0_19_12_1_0 = 0
 R1689: a4c0_19_12_1_1 = 0
 R1690: a4c0_19_12_1_2 = 0
 R1691: a4c0_19_12_1_3 = 0
 R1692: a4c0_19_12_2_0 = 0
 R1693: a4c0_19_12_2_1 = 0
 R1694: a4c0_19_12_2_2 = 0
 R1695: a4c0_19_12_2_3 = 0
 R1696: a4c0_19_12_3_0 = 0
 R1697: a4c0_19_12_3_1 = 0
 R1698: a4c0_19_12_3_2 = 0
 R1699: a4c0_19_12_3_3 = 0
 R1700: a4c0_19_12_4_0 = 1
 R1701: a4c0_19_12_4_1 = 0
 R1702: a4c0_19_12_4_2 = 0
 R1703: a4c0_19_12_4_3 = 0
 R1704: a4c0_19_13_1_0 = 0
 R1705: a4c0_19_13_1_1 = 0
 R1706: a4c0_19_13_1_2 = 0
 R1707: a4c0_19_13_1_3 = 0
 R1708: a4c0_19_13_2_0 = 0
 R1709: a4c0_19_13_2_1 = 0
 R1710: a4c0_19_13_2_2 = 0
 R1711: a4c0_19_13_2_3 = 0
 R1712: a4c0_19_13_3_0 = 0
 R1713: a4c0_19_13_3_1 = 0
 R1714: a4c0_19_13_3_2 = 0
 R1715: a4c0_19_13_3_3 = 0
 R1716: a4c0_19_13_4_0 = 0
 R1717: a4c0_19_13_4_1 = 1
 R1718: a4c0_19_13_4_2 = 0
 R1719: a4c0_19_13_4_3 = 0
 R1720: a4c0_19_14_1_0 = 0
 R1721: a4c0_19_14_1_1 = 0
 R1722: a4c0_19_14_1_2 = 0
 R1723: a4c0_19_14_1_3 = 0
 R1724: a4c0_19_14_2_0 = 0
 R1725: a4c0_19_14_2_1 = 0
 R1726: a4c0_19_14_2_2 = 0
 R1727: a4c0_19_14_2_3 = 0
 R1728: a4c0_19_14_3_0 = 0
 R1729: a4c0_19_14_3_1 = 0
 R1730: a4c0_19_14_3_2 = 0
 R1731: a4c0_19_14_3_3 = 0
 R1732: a4c0_19_14_4_0 = 0
 R1733: a4c0_19_14_4_1 = 0
 R1734: a4c0_19_14_4_2 = 1
 R1735: a4c0_19_14_4_3 = 0
 R1736: a4c0_19_15_1_0 = 0
 R1737: a4c0_19_15_1_1 = 0
 R1738: a4c0_19_15_1_2 = 0
 R1739: a4c0_19_15_1_3 = 0
 R1740: a4c0_19_15_2_0 = 0
 R1741: a4c0_19_15_2_1 = 0
 R1742: a4c0_19_15_2_2 = 0
 R1743: a4c0_19_15_2_3 = 0
 R1744: a4c0_19_15_3_0 = 0
 R1745: a4c0_19_15_3_1 = 0
 R1746: a4c0_19_15_3_2 = 0
 R1747: a4c0_19_15_3_3 = 0
 R1748: a4c0_19_15_4_0 = 0
 R1749: a4c0_19_15_4_1 = 0
 R1750: a4c0_19_15_4_2 = 0
 R1751: a4c0_19_15_4_3 = 1
 R1752: rb0_20_0_0 = 1
 R1753: rb0_20_0_1 = 0
 R1754: rb0_20_0_2 = 0
 R1755: rb0_20_1_0 = 0
 R1756: rb0_20_1_1 = 1
 R1757: rb0_20_1_2 = 0
 R1758: rb0_20_2_0 = 0
 R1759: rb0_20_2_1 = 0
 R1760: rb0_20_2_2 = 1
 R1761: rb0_20_3_0 = 0
 R1762: rb0_20_3_1 = 0
 R1763: rb0_20_3_2 = 0
 R1764: rb0_20_4_0 = 0
 R1765: rb0_20_4_1 = 0
 R1766: rb0_20_4_2 = 0
 R1767: rb0_20_5_0 = 0
 R1768: rb0_20_5_1 = 0
 R1769: rb0_20_5_2 = 0
 R1770: rb0_20_6_0 = 0
 R1771: rb0_20_6_1 = 0
 R1772: rb0_20_6_2 = 0
 R1773: rb0_20_7_0 = 0
 R1774: rb0_20_7_1 = 0
 R1775: rb0_20_7_2 = 0
 R1776: rb0_20_8_0 = 0
 R1777: rb0_20_8_1 = 0
 R1778: rb0_20_8_2 = 0
 R1779: rb0_20_9_0 = 0
 R1780: rb0_20_9_1 = 0
 R1781: rb0_20_9_2 = 0
 R1782: rb0_20_10_0 = 0
 R1783: rb0_20_10_1 = 0
 R1784: rb0_20_10_2 = 0
 R1785: rb0_20_11_0 = 0
 R1786: rb0_20_11_1 = 0
 R1787: rb0_20_11_2 = 0
 R1788: rb0_20_12_0 = 0
 R1789: rb0_20_12_1 = 0
 R1790: rb0_20_12_2 = 0
 R1791: rb0_20_13_0 = 0
 R1792: rb0_20_13_1 = 0
 R1793: rb0_20_13_2 = 0
 R1794: rb0_20_14_0 = 0
 R1795: rb0_20_14_1 = 0
 R1796: rb0_20_14_2 = 0
 R1797: a4c0_20_0_1_0 = 0
 R1798: a4c0_20_0_1_1 = 0
 R1799: a4c0_20_0_1_2 = 0
 R1800: a4c0_20_0_1_3 = 0
 R1801: a4c0_20_0_2_0 = 0
 R1802: a4c0_20_0_2_1 = 0
 R1803: a4c0_20_0_2_2 = 0
 R1804: a4c0_20_0_2_3 = 0
 R1805: a4c0_20_0_3_0 = 0
 R1806: a4c0_20_0_3_1 = 0
 R1807: a4c0_20_0_3_2 = 0
 R1808: a4c0_20_0_3_3 = 0
 R1809: a4c0_20_1_1_0 = 0
 R1810: a4c0_20_1_1_1 = 0
 R1811: a4c0_20_1_1_2 = 0
 R1812: a4c0_20_1_1_3 = 0
 R1813: a4c0_20_1_2_0 = 0
 R1814: a4c0_20_1_2_1 = 0
 R1815: a4c0_20_1_2_2 = 0
 R1816: a4c0_20_1_2_3 = 0
 R1817: a4c0_20_1_3_0 = 0
 R1818: a4c0_20_1_3_1 = 0
 R1819: a4c0_20_1_3_2 = 0
 R1820: a4c0_20_1_3_3 = 0
 R1821: a4c0_20_2_1_0 = 0
 R1822: a4c0_20_2_1_1 = 0
 R1823: a4c0_20_2_1_2 = 0
 R1824: a4c0_20_2_1_3 = 0
 R1825: a4c0_20_2_2_0 = 0
 R1826: a4c0_20_2_2_1 = 0
 R1827: a4c0_20_2_2_2 = 0
 R1828: a4c0_20_2_2_3 = 0
 R1829: a4c0_20_2_3_0 = 0
 R1830: a4c0_20_2_3_1 = 0
 R1831: a4c0_20_2_3_2 = 0
 R1832: a4c0_20_2_3_3 = 0
 R1833: a4c0_20_3_1_0 = 1
 R1834: a4c0_20_3_1_1 = 0
 R1835: a4c0_20_3_1_2 = 0
 R1836: a4c0_20_3_1_3 = 0
 R1837: a4c0_20_3_2_0 = 0
 R1838: a4c0_20_3_2_1 = 0
 R1839: a4c0_20_3_2_2 = 0
 R1840: a4c0_20_3_2_3 = 0
 R1841: a4c0_20_3_3_0 = 0
 R1842: a4c0_20_3_3_1 = 0
 R1843: a4c0_20_3_3_2 = 0
 R1844: a4c0_20_3_3_3 = 0
 R1845: a4c0_20_4_1_0 = 0
 R1846: a4c0_20_4_1_1 = 1
 R1847: a4c0_20_4_1_2 = 0
 R1848: a4c0_20_4_1_3 = 0
 R1849: a4c0_20_4_2_0 = 0
 R1850: a4c0_20_4_2_1 = 0
 R1851: a4c0_20_4_2_2 = 0
 R1852: a4c0_20_4_2_3 = 0
 R1853: a4c0_20_4_3_0 = 0
 R1854: a4c0_20_4_3_1 = 0
 R1855: a4c0_20_4_3_2 = 0
 R1856: a4c0_20_4_3_3 = 0
 R1857: a4c0_20_5_1_0 = 0
 R1858: a4c0_20_5_1_1 = 0
 R1859: a4c0_20_5_1_2 = 1
 R1860: a4c0_20_5_1_3 = 0
 R1861: a4c0_20_5_2_0 = 0
 R1862: a4c0_20_5_2_1 = 0
 R1863: a4c0_20_5_2_2 = 0
 R1864: a4c0_20_5_2_3 = 0
 R1865: a4c0_20_5_3_0 = 0
 R1866: a4c0_20_5_3_1 = 0
 R1867: a4c0_20_5_3_2 = 0
 R1868: a4c0_20_5_3_3 = 0
 R1869: a4c0_20_6_1_0 = 0
 R1870: a4c0_20_6_1_1 = 0
 R1871: a4c0_20_6_1_2 = 0
 R1872: a4c0_20_6_1_3 = 1
 R1873: a4c0_20_6_2_0 = 0
 R1874: a4c0_20_6_2_1 = 0
 R1875: a4c0_20_6_2_2 = 0
 R1876: a4c0_20_6_2_3 = 0
 R1877: a4c0_20_6_3_0 = 0
 R1878: a4c0_20_6_3_1 = 0
 R1879: a4c0_20_6_3_2 = 0
 R1880: a4c0_20_6_3_3 = 0
 R1881: a4c0_20_7_1_0 = 0
 R1882: a4c0_20_7_1_1 = 0
 R1883: a4c0_20_7_1_2 = 0
 R1884: a4c0_20_7_1_3 = 0
 R1885: a4c0_20_7_2_0 = 1
 R1886: a4c0_20_7_2_1 = 0
 R1887: a4c0_20_7_2_2 = 0
 R1888: a4c0_20_7_2_3 = 0
 R1889: a4c0_20_7_3_0 = 0
 R1890: a4c0_20_7_3_1 = 0
 R1891: a4c0_20_7_3_2 = 0
 R1892: a4c0_20_7_3_3 = 0
 R1893: a4c0_20_8_1_0 = 0
 R1894: a4c0_20_8_1_1 = 0
 R1895: a4c0_20_8_1_2 = 0
 R1896: a4c0_20_8_1_3 = 0
 R1897: a4c0_20_8_2_0 = 0
 R1898: a4c0_20_8_2_1 = 1
 R1899: a4c0_20_8_2_2 = 0
 R1900: a4c0_20_8_2_3 = 0
 R1901: a4c0_20_8_3_0 = 0
 R1902: a4c0_20_8_3_1 = 0
 R1903: a4c0_20_8_3_2 = 0
 R1904: a4c0_20_8_3_3 = 0
 R1905: a4c0_20_9_1_0 = 0
 R1906: a4c0_20_9_1_1 = 0
 R1907: a4c0_20_9_1_2 = 0
 R1908: a4c0_20_9_1_3 = 0
 R1909: a4c0_20_9_2_0 = 0
 R1910: a4c0_20_9_2_1 = 0
 R1911: a4c0_20_9_2_2 = 1
 R1912: a4c0_20_9_2_3 = 0
 R1913: a4c0_20_9_3_0 = 0
 R1914: a4c0_20_9_3_1 = 0
 R1915: a4c0_20_9_3_2 = 0
 R1916: a4c0_20_9_3_3 = 0
 R1917: a4c0_20_10_1_0 = 0
 R1918: a4c0_20_10_1_1 = 0
 R1919: a4c0_20_10_1_2 = 0
 R1920: a4c0_20_10_1_3 = 0
 R1921: a4c0_20_10_2_0 = 0
 R1922: a4c0_20_10_2_1 = 0
 R1923: a4c0_20_10_2_2 = 0
 R1924: a4c0_20_10_2_3 = 1
 R1925: a4c0_20_10_3_0 = 0
 R1926: a4c0_20_10_3_1 = 0
 R1927: a4c0_20_10_3_2 = 0
 R1928: a4c0_20_10_3_3 = 0
 R1929: a4c0_20_11_1_0 = 0
 R1930: a4c0_20_11_1_1 = 0
 R1931: a4c0_20_11_1_2 = 0
 R1932: a4c0_20_11_1_3 = 0
 R1933: a4c0_20_11_2_0 = 0
 R1934: a4c0_20_11_2_1 = 0
 R1935: a4c0_20_11_2_2 = 0
 R1936: a4c0_20_11_2_3 = 0
 R1937: a4c0_20_11_3_0 = 1
 R1938: a4c0_20_11_3_1 = 0
 R1939: a4c0_20_11_3_2 = 0
 R1940: a4c0_20_11_3_3 = 0
 R1941: a4c0_20_12_1_0 = 0
 R1942: a4c0_20_12_1_1 = 0
 R1943: a4c0_20_12_1_2 = 0
 R1944: a4c0_20_12_1_3 = 0
 R1945: a4c0_20_12_2_0 = 0
 R1946: a4c0_20_12_2_1 = 0
 R1947: a4c0_20_12_2_2 = 0
 R1948: a4c0_20_12_2_3 = 0
 R1949: a4c0_20_12_3_0 = 0
 R1950: a4c0_20_12_3_1 = 1
 R1951: a4c0_20_12_3_2 = 0
 R1952: a4c0_20_12_3_3 = 0
 R1953: a4c0_20_13_1_0 = 0
 R1954: a4c0_20_13_1_1 = 0
 R1955: a4c0_20_13_1_2 = 0
 R1956: a4c0_20_13_1_3 = 0
 R1957: a4c0_20_13_2_0 = 0
 R1958: a4c0_20_13_2_1 = 0
 R1959: a4c0_20_13_2_2 = 0
 R1960: a4c0_20_13_2_3 = 0
 R1961: a4c0_20_13_3_0 = 0
 R1962: a4c0_20_13_3_1 = 0
 R1963: a4c0_20_13_3_2 = 1
 R1964: a4c0_20_13_3_3 = 0
 R1965: a4c0_20_14_1_0 = 0
 R1966: a4c0_20_14_1_1 = 0
 R1967: a4c0_20_14_1_2 = 0
 R1968: a4c0_20_14_1_3 = 0
 R1969: a4c0_20_14_2_0 = 0
 R1970: a4c0_20_14_2_1 = 0
 R1971: a4c0_20_14_2_2 = 0
 R1972: a4c0_20_14_2_3 = 0
 R1973: a4c0_20_14_3_0 = 0
 R1974: a4c0_20_14_3_1 = 0
 R1975: a4c0_20_14_3_2 = 0
 R1976: a4c0_20_14_3_3 = 1
 R1977: rb0_21_0_0 = 1
 R1978: rb0_21_0_1 = 0
 R1979: rb0_21_1_0 = 0
 R1980: rb0_21_1_1 = 1
 R1981: rb0_21_2_0 = 0
 R1982: rb0_21_2_1 = 0
 R1983: rb0_21_3_0 = 0
 R1984: rb0_21_3_1 = 0
 R1985: rb0_21_4_0 = 0
 R1986: rb0_21_4_1 = 0
 R1987: rb0_21_5_0 = 0
 R1988: rb0_21_5_1 = 0
 R1989: rb0_21_6_0 = 0
 R1990: rb0_21_6_1 = 0
 R1991: rb0_21_7_0 = 0
 R1992: rb0_21_7_1 = 0
 R1993: rb0_21_8_0 = 0
 R1994: rb0_21_8_1 = 0
 R1995: rb0_21_9_0 = 0
 R1996: rb0_21_9_1 = 0
 R1997: rb0_21_10_0 = 0
 R1998: rb0_21_10_1 = 0
 R1999: rb0_21_11_0 = 0
 R2000: rb0_21_11_1 = 0
 R2001: rb0_21_12_0 = 0
 R2002: rb0_21_12_1 = 0
 R2003: rb0_21_13_0 = 0
 R2004: rb0_21_13_1 = 0
 R2005: a4c0_21_0_1_0 = 0
 R2006: a4c0_21_0_1_1 = 0
 R2007: a4c0_21_0_1_2 = 0
 R2008: a4c0_21_0_1_3 = 0
 R2009: a4c0_21_0_2_0 = 0
 R2010: a4c0_21_0_2_1 = 0
 R2011: a4c0_21_0_2_2 = 0
 R2012: a4c0_21_0_2_3 = 0
 R2013: a4c0_21_0_3_0 = 0
 R2014: a4c0_21_0_3_1 = 0
 R2015: a4c0_21_0_3_2 = 0
 R2016: a4c0_21_0_3_3 = 0
 R2017: a4c0_21_1_1_0 = 0
 R2018: a4c0_21_1_1_1 = 0
 R2019: a4c0_21_1_1_2 = 0
 R2020: a4c0_21_1_1_3 = 0
 R2021: a4c0_21_1_2_0 = 0
 R2022: a4c0_21_1_2_1 = 0
 R2023: a4c0_21_1_2_2 = 0
 R2024: a4c0_21_1_2_3 = 0
 R2025: a4c0_21_1_3_0 = 0
 R2026: a4c0_21_1_3_1 = 0
 R2027: a4c0_21_1_3_2 = 0
 R2028: a4c0_21_1_3_3 = 0
 R2029: a4c0_21_2_1_0 = 1
 R2030: a4c0_21_2_1_1 = 0
 R2031: a4c0_21_2_1_2 = 0
 R2032: a4c0_21_2_1_3 = 0
 R2033: a4c0_21_2_2_0 = 0
 R2034: a4c0_21_2_2_1 = 0
 R2035: a4c0_21_2_2_2 = 0
 R2036: a4c0_21_2_2_3 = 0
 R2037: a4c0_21_2_3_0 = 0
 R2038: a4c0_21_2_3_1 = 0
 R2039: a4c0_21_2_3_2 = 0
 R2040: a4c0_21_2_3_3 = 0
 R2041: a4c0_21_3_1_0 = 0
 R2042: a4c0_21_3_1_1 = 1
 R2043: a4c0_21_3_1_2 = 0
 R2044: a4c0_21_3_1_3 = 0
 R2045: a4c0_21_3_2_0 = 0
 R2046: a4c0_21_3_2_1 = 0
 R2047: a4c0_21_3_2_2 = 0
 R2048: a4c0_21_3_2_3 = 0
 R2049: a4c0_21_3_3_0 = 0
 R2050: a4c0_21_3_3_1 = 0
 R2051: a4c0_21_3_3_2 = 0
 R2052: a4c0_21_3_3_3 = 0
 R2053: a4c0_21_4_1_0 = 0
 R2054: a4c0_21_4_1_1 = 0
 R2055: a4c0_21_4_1_2 = 1
 R2056: a4c0_21_4_1_3 = 0
 R2057: a4c0_21_4_2_0 = 0
 R2058: a4c0_21_4_2_1 = 0
 R2059: a4c0_21_4_2_2 = 0
 R2060: a4c0_21_4_2_3 = 0
 R2061: a4c0_21_4_3_0 = 0
 R2062: a4c0_21_4_3_1 = 0
 R2063: a4c0_21_4_3_2 = 0
 R2064: a4c0_21_4_3_3 = 0
 R2065: a4c0_21_5_1_0 = 0
 R2066: a4c0_21_5_1_1 = 0
 R2067: a4c0_21_5_1_2 = 0
 R2068: a4c0_21_5_1_3 = 1
 R2069: a4c0_21_5_2_0 = 0
 R2070: a4c0_21_5_2_1 = 0
 R2071: a4c0_21_5_2_2 = 0
 R2072: a4c0_21_5_2_3 = 0
 R2073: a4c0_21_5_3_0 = 0
 R2074: a4c0_21_5_3_1 = 0
 R2075: a4c0_21_5_3_2 = 0
 R2076: a4c0_21_5_3_3 = 0
 R2077: a4c0_21_6_1_0 = 0
 R2078: a4c0_21_6_1_1 = 0
 R2079: a4c0_21_6_1_2 = 0
 R2080: a4c0_21_6_1_3 = 0
 R2081: a4c0_21_6_2_0 = 1
 R2082: a4c0_21_6_2_1 = 0
 R2083: a4c0_21_6_2_2 = 0
 R2084: a4c0_21_6_2_3 = 0
 R2085: a4c0_21_6_3_0 = 0
 R2086: a4c0_21_6_3_1 = 0
 R2087: a4c0_21_6_3_2 = 0
 R2088: a4c0_21_6_3_3 = 0
 R2089: a4c0_21_7_1_0 = 0
 R2090: a4c0_21_7_1_1 = 0
 R2091: a4c0_21_7_1_2 = 0
 R2092: a4c0_21_7_1_3 = 0
 R2093: a4c0_21_7_2_0 = 0
 R2094: a4c0_21_7_2_1 = 1
 R2095: a4c0_21_7_2_2 = 0
 R2096: a4c0_21_7_2_3 = 0
 R2097: a4c0_21_7_3_0 = 0
 R2098: a4c0_21_7_3_1 = 0
 R2099: a4c0_21_7_3_2 = 0
 R2100: a4c0_21_7_3_3 = 0
 R2101: a4c0_21_8_1_0 = 0
 R2102: a4c0_21_8_1_1 = 0
 R2103: a4c0_21_8_1_2 = 0
 R2104: a4c0_21_8_1_3 = 0
 R2105: a4c0_21_8_2_0 = 0
 R2106: a4c0_21_8_2_1 = 0
 R2107: a4c0_21_8_2_2 = 1
 R2108: a4c0_21_8_2_3 = 0
 R2109: a4c0_21_8_3_0 = 0
 R2110: a4c0_21_8_3_1 = 0
 R2111: a4c0_21_8_3_2 = 0
 R2112: a4c0_21_8_3_3 = 0
 R2113: a4c0_21_9_1_0 = 0
 R2114: a4c0_21_9_1_1 = 0
 R2115: a4c0_21_9_1_2 = 0
 R2116: a4c0_21_9_1_3 = 0
 R2117: a4c0_21_9_2_0 = 0
 R2118: a4c0_21_9_2_1 = 0
 R2119: a4c0_21_9_2_2 = 0
 R2120: a4c0_21_9_2_3 = 1
 R2121: a4c0_21_9_3_0 = 0
 R2122: a4c0_21_9_3_1 = 0
 R2123: a4c0_21_9_3_2 = 0
 R2124: a4c0_21_9_3_3 = 0
 R2125: a4c0_21_10_1_0 = 0
 R2126: a4c0_21_10_1_1 = 0
 R2127: a4c0_21_10_1_2 = 0
 R2128: a4c0_21_10_1_3 = 0
 R2129: a4c0_21_10_2_0 = 0
 R2130: a4c0_21_10_2_1 = 0
 R2131: a4c0_21_10_2_2 = 0
 R2132: a4c0_21_10_2_3 = 0
 R2133: a4c0_21_10_3_0 = 1
 R2134: a4c0_21_10_3_1 = 0
 R2135: a4c0_21_10_3_2 = 0
 R2136: a4c0_21_10_3_3 = 0
 R2137: a4c0_21_11_1_0 = 0
 R2138: a4c0_21_11_1_1 = 0
 R2139: a4c0_21_11_1_2 = 0
 R2140: a4c0_21_11_1_3 = 0
 R2141: a4c0_21_11_2_0 = 0
 R2142: a4c0_21_11_2_1 = 0
 R2143: a4c0_21_11_2_2 = 0
 R2144: a4c0_21_11_2_3 = 0
 R2145: a4c0_21_11_3_0 = 0
 R2146: a4c0_21_11_3_1 = 1
 R2147: a4c0_21_11_3_2 = 0
 R2148: a4c0_21_11_3_3 = 0
 R2149: a4c0_21_12_1_0 = 0
 R2150: a4c0_21_12_1_1 = 0
 R2151: a4c0_21_12_1_2 = 0
 R2152: a4c0_21_12_1_3 = 0
 R2153: a4c0_21_12_2_0 = 0
 R2154: a4c0_21_12_2_1 = 0
 R2155: a4c0_21_12_2_2 = 0
 R2156: a4c0_21_12_2_3 = 0
 R2157: a4c0_21_12_3_0 = 0
 R2158: a4c0_21_12_3_1 = 0
 R2159: a4c0_21_12_3_2 = 1
 R2160: a4c0_21_12_3_3 = 0
 R2161: a4c0_21_13_1_0 = 0
 R2162: a4c0_21_13_1_1 = 0
 R2163: a4c0_21_13_1_2 = 0
 R2164: a4c0_21_13_1_3 = 0
 R2165: a4c0_21_13_2_0 = 0
 R2166: a4c0_21_13_2_1 = 0
 R2167: a4c0_21_13_2_2 = 0
 R2168: a4c0_21_13_2_3 = 0
 R2169: a4c0_21_13_3_0 = 0
 R2170: a4c0_21_13_3_1 = 0
 R2171: a4c0_21_13_3_2 = 0
 R2172: a4c0_21_13_3_3 = 1
 R2173: rb0_22_0_0 = 1
 R2174: rb0_22_1_0 = 0
 R2175: rb0_22_2_0 = 0
 R2176: rb0_22_3_0 = 0
 R2177: rb0_22_4_0 = 0
 R2178: rb0_22_5_0 = 0
 R2179: rb0_22_6_0 = 0
 R2180: rb0_22_7_0 = 0
 R2181: rb0_22_8_0 = 0
 R2182: rb0_22_9_0 = 0
 R2183: rb0_22_10_0 = 0
 R2184: rb0_22_11_0 = 0
 R2185: rb0_22_12_0 = 0
 R2186: a4c0_22_0_1_0 = 0
 R2187: a4c0_22_0_1_1 = 0
 R2188: a4c0_22_0_1_2 = 0
 R2189: a4c0_22_0_1_3 = 0
 R2190: a4c0_22_0_2_0 = 0
 R2191: a4c0_22_0_2_1 = 0
 R2192: a4c0_22_0_2_2 = 0
 R2193: a4c0_22_0_2_3 = 0
 R2194: a4c0_22_0_3_0 = 0
 R2195: a4c0_22_0_3_1 = 0
 R2196: a4c0_22_0_3_2 = 0
 R2197: a4c0_22_0_3_3 = 0
 R2198: a4c0_22_1_1_0 = 1
 R2199: a4c0_22_1_1_1 = 0
 R2200: a4c0_22_1_1_2 = 0
 R2201: a4c0_22_1_1_3 = 0
 R2202: a4c0_22_1_2_0 = 0
 R2203: a4c0_22_1_2_1 = 0
 R2204: a4c0_22_1_2_2 = 0
 R2205: a4c0_22_1_2_3 = 0
 R2206: a4c0_22_1_3_0 = 0
 R2207: a4c0_22_1_3_1 = 0
 R2208: a4c0_22_1_3_2 = 0
 R2209: a4c0_22_1_3_3 = 0
 R2210: a4c0_22_2_1_0 = 0
 R2211: a4c0_22_2_1_1 = 1
 R2212: a4c0_22_2_1_2 = 0
 R2213: a4c0_22_2_1_3 = 0
 R2214: a4c0_22_2_2_0 = 0
 R2215: a4c0_22_2_2_1 = 0
 R2216: a4c0_22_2_2_2 = 0
 R2217: a4c0_22_2_2_3 = 0
 R2218: a4c0_22_2_3_0 = 0
 R2219: a4c0_22_2_3_1 = 0
 R2220: a4c0_22_2_3_2 = 0
 R2221: a4c0_22_2_3_3 = 0
 R2222: a4c0_22_3_1_0 = 0
 R2223: a4c0_22_3_1_1 = 0
 R2224: a4c0_22_3_1_2 = 1
 R2225: a4c0_22_3_1_3 = 0
 R2226: a4c0_22_3_2_0 = 0
 R2227: a4c0_22_3_2_1 = 0
 R2228: a4c0_22_3_2_2 = 0
 R2229: a4c0_22_3_2_3 = 0
 R2230: a4c0_22_3_3_0 = 0
 R2231: a4c0_22_3_3_1 = 0
 R2232: a4c0_22_3_3_2 = 0
 R2233: a4c0_22_3_3_3 = 0
 R2234: a4c0_22_4_1_0 = 0
 R2235: a4c0_22_4_1_1 = 0
 R2236: a4c0_22_4_1_2 = 0
 R2237: a4c0_22_4_1_3 = 1
 R2238: a4c0_22_4_2_0 = 0
 R2239: a4c0_22_4_2_1 = 0
 R2240: a4c0_22_4_2_2 = 0
 R2241: a4c0_22_4_2_3 = 0
 R2242: a4c0_22_4_3_0 = 0
 R2243: a4c0_22_4_3_1 = 0
 R2244: a4c0_22_4_3_2 = 0
 R2245: a4c0_22_4_3_3 = 0
 R2246: a4c0_22_5_1_0 = 0
 R2247: a4c0_22_5_1_1 = 0
 R2248: a4c0_22_5_1_2 = 0
 R2249: a4c0_22_5_1_3 = 0
 R2250: a4c0_22_5_2_0 = 1
 R2251: a4c0_22_5_2_1 = 0
 R2252: a4c0_22_5_2_2 = 0
 R2253: a4c0_22_5_2_3 = 0
 R2254: a4c0_22_5_3_0 = 0
 R2255: a4c0_22_5_3_1 = 0
 R2256: a4c0_22_5_3_2 = 0
 R2257: a4c0_22_5_3_3 = 0
 R2258: a4c0_22_6_1_0 = 0
 R2259: a4c0_22_6_1_1 = 0
 R2260: a4c0_22_6_1_2 = 0
 R2261: a4c0_22_6_1_3 = 0
 R2262: a4c0_22_6_2_0 = 0
 R2263: a4c0_22_6_2_1 = 1
 R2264: a4c0_22_6_2_2 = 0
 R2265: a4c0_22_6_2_3 = 0
 R2266: a4c0_22_6_3_0 = 0
 R2267: a4c0_22_6_3_1 = 0
 R2268: a4c0_22_6_3_2 = 0
 R2269: a4c0_22_6_3_3 = 0
 R2270: a4c0_22_7_1_0 = 0
 R2271: a4c0_22_7_1_1 = 0
 R2272: a4c0_22_7_1_2 = 0
 R2273: a4c0_22_7_1_3 = 0
 R2274: a4c0_22_7_2_0 = 0
 R2275: a4c0_22_7_2_1 = 0
 R2276: a4c0_22_7_2_2 = 1
 R2277: a4c0_22_7_2_3 = 0
 R2278: a4c0_22_7_3_0 = 0
 R2279: a4c0_22_7_3_1 = 0
 R2280: a4c0_22_7_3_2 = 0
 R2281: a4c0_22_7_3_3 = 0
 R2282: a4c0_22_8_1_0 = 0
 R2283: a4c0_22_8_1_1 = 0
 R2284: a4c0_22_8_1_2 = 0
 R2285: a4c0_22_8_1_3 = 0
 R2286: a4c0_22_8_2_0 = 0
 R2287: a4c0_22_8_2_1 = 0
 R2288: a4c0_22_8_2_2 = 0
 R2289: a4c0_22_8_2_3 = 1
 R2290: a4c0_22_8_3_0 = 0
 R2291: a4c0_22_8_3_1 = 0
 R2292: a4c0_22_8_3_2 = 0
 R2293: a4c0_22_8_3_3 = 0
 R2294: a4c0_22_9_1_0 = 0
 R2295: a4c0_22_9_1_1 = 0
 R2296: a4c0_22_9_1_2 = 0
 R2297: a4c0_22_9_1_3 = 0
 R2298: a4c0_22_9_2_0 = 0
 R2299: a4c0_22_9_2_1 = 0
 R2300: a4c0_22_9_2_2 = 0
 R2301: a4c0_22_9_2_3 = 0
 R2302: a4c0_22_9_3_0 = 1
 R2303: a4c0_22_9_3_1 = 0
 R2304: a4c0_22_9_3_2 = 0
 R2305: a4c0_22_9_3_3 = 0
 R2306: a4c0_22_10_1_0 = 0
 R2307: a4c0_22_10_1_1 = 0
 R2308: a4c0_22_10_1_2 = 0
 R2309: a4c0_22_10_1_3 = 0
 R2310: a4c0_22_10_2_0 = 0
 R2311: a4c0_22_10_2_1 = 0
 R2312: a4c0_22_10_2_2 = 0
 R2313: a4c0_22_10_2_3 = 0
 R2314: a4c0_22_10_3_0 = 0
 R2315: a4c0_22_10_3_1 = 1
 R2316: a4c0_22_10_3_2 = 0
 R2317: a4c0_22_10_3_3 = 0
 R2318: a4c0_22_11_1_0 = 0
 R2319: a4c0_22_11_1_1 = 0
 R2320: a4c0_22_11_1_2 = 0
 R2321: a4c0_22_11_1_3 = 0
 R2322: a4c0_22_11_2_0 = 0
 R2323: a4c0_22_11_2_1 = 0
 R2324: a4c0_22_11_2_2 = 0
 R2325: a4c0_22_11_2_3 = 0
 R2326: a4c0_22_11_3_0 = 0
 R2327: a4c0_22_11_3_1 = 0
 R2328: a4c0_22_11_3_2 = 1
 R2329: a4c0_22_11_3_3 = 0
 R2330: a4c0_22_12_1_0 = 0
 R2331: a4c0_22_12_1_1 = 0
 R2332: a4c0_22_12_1_2 = 0
 R2333: a4c0_22_12_1_3 = 0
 R2334: a4c0_22_12_2_0 = 0
 R2335: a4c0_22_12_2_1 = 0
 R2336: a4c0_22_12_2_2 = 0
 R2337: a4c0_22_12_2_3 = 0
 R2338: a4c0_22_12_3_0 = 0
 R2339: a4c0_22_12_3_1 = 0
 R2340: a4c0_22_12_3_2 = 0
 R2341: a4c0_22_12_3_3 = 1
 R2342: rb0_23_0_0 = 1
 R2343: rb0_23_1_0 = 0
 R2344: rb0_23_2_0 = 0
 R2345: rb0_23_3_0 = 0
 R2346: rb0_23_4_0 = 0
 R2347: rb0_23_5_0 = 0
 R2348: rb0_23_6_0 = 0
 R2349: rb0_23_7_0 = 0
 R2350: rb0_23_8_0 = 0
 R2351: rb0_23_9_0 = 0
 R2352: rb0_23_10_0 = 0
 R2353: rb0_23_11_0 = 0
 R2354: a4c0_23_0_1_0 = 0
 R2355: a4c0_23_0_1_1 = 0
 R2356: a4c0_23_0_1_2 = 0
 R2357: a4c0_23_0_1_3 = 0
 R2358: a4c0_23_0_2_0 = 0
 R2359: a4c0_23_0_2_1 = 0
 R2360: a4c0_23_0_2_2 = 0
 R2361: a4c0_23_0_2_3 = 0
 R2362: a4c0_23_1_1_0 = 1
 R2363: a4c0_23_1_1_1 = 0
 R2364: a4c0_23_1_1_2 = 0
 R2365: a4c0_23_1_1_3 = 0
 R2366: a4c0_23_1_2_0 = 0
 R2367: a4c0_23_1_2_1 = 0
 R2368: a4c0_23_1_2_2 = 0
 R2369: a4c0_23_1_2_3 = 0
 R2370: a4c0_23_2_1_0 = 0
 R2371: a4c0_23_2_1_1 = 1
 R2372: a4c0_23_2_1_2 = 0
 R2373: a4c0_23_2_1_3 = 0
 R2374: a4c0_23_2_2_0 = 0
 R2375: a4c0_23_2_2_1 = 0
 R2376: a4c0_23_2_2_2 = 0
 R2377: a4c0_23_2_2_3 = 0
 R2378: a4c0_23_3_1_0 = 0
 R2379: a4c0_23_3_1_1 = 0
 R2380: a4c0_23_3_1_2 = 1
 R2381: a4c0_23_3_1_3 = 0
 R2382: a4c0_23_3_2_0 = 0
 R2383: a4c0_23_3_2_1 = 0
 R2384: a4c0_23_3_2_2 = 0
 R2385: a4c0_23_3_2_3 = 0
 R2386: a4c0_23_4_1_0 = 0
 R2387: a4c0_23_4_1_1 = 0
 R2388: a4c0_23_4_1_2 = 0
 R2389: a4c0_23_4_1_3 = 1
 R2390: a4c0_23_4_2_0 = 0
 R2391: a4c0_23_4_2_1 = 0
 R2392: a4c0_23_4_2_2 = 0
 R2393: a4c0_23_4_2_3 = 0
 R2394: a4c0_23_5_1_0 = 0
 R2395: a4c0_23_5_1_1 = 0
 R2396: a4c0_23_5_1_2 = 0
 R2397: a4c0_23_5_1_3 = 0
 R2398: a4c0_23_5_2_0 = 1
 R2399: a4c0_23_5_2_1 = 0
 R2400: a4c0_23_5_2_2 = 0
 R2401: a4c0_23_5_2_3 = 0
 R2402: a4c0_23_6_1_0 = 0
 R2403: a4c0_23_6_1_1 = 0
 R2404: a4c0_23_6_1_2 = 0
 R2405: a4c0_23_6_1_3 = 0
 R2406: a4c0_23_6_2_0 = 0
 R2407: a4c0_23_6_2_1 = 1
 R2408: a4c0_23_6_2_2 = 0
 R2409: a4c0_23_6_2_3 = 0
 R2410: a4c0_23_7_1_0 = 0
 R2411: a4c0_23_7_1_1 = 0
 R2412: a4c0_23_7_1_2 = 0
 R2413: a4c0_23_7_1_3 = 0
 R2414: a4c0_23_7_2_0 = 0
 R2415: a4c0_23_7_2_1 = 0
 R2416: a4c0_23_7_2_2 = 1
 R2417: a4c0_23_7_2_3 = 0
 R2418: a4c0_23_8_1_0 = 0
 R2419: a4c0_23_8_1_1 = 0
 R2420: a4c0_23_8_1_2 = 0
 R2421: a4c0_23_8_1_3 = 0
 R2422: a4c0_23_8_2_0 = 0
 R2423: a4c0_23_8_2_1 = 0
 R2424: a4c0_23_8_2_2 = 0
 R2425: a4c0_23_8_2_3 = 1
 R2426: a4c0_23_9_1_0 = 0
 R2427: a4c0_23_9_1_1 = 0
 R2428: a4c0_23_9_1_2 = 0
 R2429: a4c0_23_9_1_3 = 0
 R2430: a4c0_23_9_2_0 = 0
 R2431: a4c0_23_9_2_1 = 0
 R2432: a4c0_23_9_2_2 = 0
 R2433: a4c0_23_9_2_3 = 0
 R2434: a4c0_23_10_1_0 = 0
 R2435: a4c0_23_10_1_1 = 0
 R2436: a4c0_23_10_1_2 = 0
 R2437: a4c0_23_10_1_3 = 0
 R2438: a4c0_23_10_2_0 = 0
 R2439: a4c0_23_10_2_1 = 0
 R2440: a4c0_23_10_2_2 = 0
 R2441: a4c0_23_10_2_3 = 0
 R2442: a4c0_23_11_1_0 = 0
 R2443: a4c0_23_11_1_1 = 0
 R2444: a4c0_23_11_1_2 = 0
 R2445: a4c0_23_11_1_3 = 0
 R2446: a4c0_23_11_2_0 = 0
 R2447: a4c0_23_11_2_1 = 0
 R2448: a4c0_23_11_2_2 = 0
 R2449: a4c0_23_11_2_3 = 0
 R2450: a3c0_23_0_1_0 = 0
 R2451: a3c0_23_0_1_1 = 0
 R2452: a3c0_23_0_1_2 = 0
 R2453: a3c0_23_1_1_0 = 0
 R2454: a3c0_23_1_1_1 = 0
 R2455: a3c0_23_1_1_2 = 0
 R2456: a3c0_23_2_1_0 = 0
 R2457: a3c0_23_2_1_1 = 0
 R2458: a3c0_23_2_1_2 = 0
 R2459: a3c0_23_3_1_0 = 0
 R2460: a3c0_23_3_1_1 = 0
 R2461: a3c0_23_3_1_2 = 0
 R2462: a3c0_23_4_1_0 = 0
 R2463: a3c0_23_4_1_1 = 0
 R2464: a3c0_23_4_1_2 = 0
 R2465: a3c0_23_5_1_0 = 0
 R2466: a3c0_23_5_1_1 = 0
 R2467: a3c0_23_5_1_2 = 0
 R2468: a3c0_23_6_1_0 = 0
 R2469: a3c0_23_6_1_1 = 0
 R2470: a3c0_23_6_1_2 = 0
 R2471: a3c0_23_7_1_0 = 0
 R2472: a3c0_23_7_1_1 = 0
 R2473: a3c0_23_7_1_2 = 0
 R2474: a3c0_23_8_1_0 = 0
 R2475: a3c0_23_8_1_1 = 0
 R2476: a3c0_23_8_1_2 = 0
 R2477: a3c0_23_9_1_0 = 1
 R2478: a3c0_23_9_1_1 = 0
 R2479: a3c0_23_9_1_2 = 0
 R2480: a3c0_23_10_1_0 = 0
 R2481: a3c0_23_10_1_1 = 1
 R2482: a3c0_23_10_1_2 = 0
 R2483: a3c0_23_11_1_0 = 0
 R2484: a3c0_23_11_1_1 = 0
 R2485: a3c0_23_11_1_2 = 1
 R2486: rb0_24_0_0 = 1
 R2487: rb0_24_0_1 = 0
 R2488: rb0_24_1_0 = 0
 R2489: rb0_24_1_1 = 1
 R2490: rb0_24_2_0 = 0
 R2491: rb0_24_2_1 = 0
 R2492: rb0_24_3_0 = 0
 R2493: rb0_24_3_1 = 0
 R2494: rb0_24_4_0 = 0
 R2495: rb0_24_4_1 = 0
 R2496: rb0_24_5_0 = 0
 R2497: rb0_24_5_1 = 0
 R2498: rb0_24_6_0 = 0
 R2499: rb0_24_6_1 = 0
 R2500: rb0_24_7_0 = 0
 R2501: rb0_24_7_1 = 0
 R2502: rb0_24_8_0 = 0
 R2503: rb0_24_8_1 = 0
 R2504: rb0_24_9_0 = 0
 R2505: rb0_24_9_1 = 0
 R2506: rb0_24_10_0 = 0
 R2507: rb0_24_10_1 = 0
 R2508: a3c0_24_0_1_0 = 0
 R2509: a3c0_24_0_1_1 = 0
 R2510: a3c0_24_0_1_2 = 0
 R2511: a3c0_24_0_2_0 = 0
 R2512: a3c0_24_0_2_1 = 0
 R2513: a3c0_24_0_2_2 = 0
 R2514: a3c0_24_0_3_0 = 0
 R2515: a3c0_24_0_3_1 = 0
 R2516: a3c0_24_0_3_2 = 0
 R2517: a3c0_24_1_1_0 = 0
 R2518: a3c0_24_1_1_1 = 0
 R2519: a3c0_24_1_1_2 = 0
 R2520: a3c0_24_1_2_0 = 0
 R2521: a3c0_24_1_2_1 = 0
 R2522: a3c0_24_1_2_2 = 0
 R2523: a3c0_24_1_3_0 = 0
 R2524: a3c0_24_1_3_1 = 0
 R2525: a3c0_24_1_3_2 = 0
 R2526: a3c0_24_2_1_0 = 1
 R2527: a3c0_24_2_1_1 = 0
 R2528: a3c0_24_2_1_2 = 0
 R2529: a3c0_24_2_2_0 = 0
 R2530: a3c0_24_2_2_1 = 0
 R2531: a3c0_24_2_2_2 = 0
 R2532: a3c0_24_2_3_0 = 0
 R2533: a3c0_24_2_3_1 = 0
 R2534: a3c0_24_2_3_2 = 0
 R2535: a3c0_24_3_1_0 = 0
 R2536: a3c0_24_3_1_1 = 1
 R2537: a3c0_24_3_1_2 = 0
 R2538: a3c0_24_3_2_0 = 0
 R2539: a3c0_24_3_2_1 = 0
 R2540: a3c0_24_3_2_2 = 0
 R2541: a3c0_24_3_3_0 = 0
 R2542: a3c0_24_3_3_1 = 0
 R2543: a3c0_24_3_3_2 = 0
 R2544: a3c0_24_4_1_0 = 0
 R2545: a3c0_24_4_1_1 = 0
 R2546: a3c0_24_4_1_2 = 1
 R2547: a3c0_24_4_2_0 = 0
 R2548: a3c0_24_4_2_1 = 0
 R2549: a3c0_24_4_2_2 = 0
 R2550: a3c0_24_4_3_0 = 0
 R2551: a3c0_24_4_3_1 = 0
 R2552: a3c0_24_4_3_2 = 0
 R2553: a3c0_24_5_1_0 = 0
 R2554: a3c0_24_5_1_1 = 0
 R2555: a3c0_24_5_1_2 = 0
 R2556: a3c0_24_5_2_0 = 1
 R2557: a3c0_24_5_2_1 = 0
 R2558: a3c0_24_5_2_2 = 0
 R2559: a3c0_24_5_3_0 = 0
 R2560: a3c0_24_5_3_1 = 0
 R2561: a3c0_24_5_3_2 = 0
 R2562: a3c0_24_6_1_0 = 0
 R2563: a3c0_24_6_1_1 = 0
 R2564: a3c0_24_6_1_2 = 0
 R2565: a3c0_24_6_2_0 = 0
 R2566: a3c0_24_6_2_1 = 1
 R2567: a3c0_24_6_2_2 = 0
 R2568: a3c0_24_6_3_0 = 0
 R2569: a3c0_24_6_3_1 = 0
 R2570: a3c0_24_6_3_2 = 0
 R2571: a3c0_24_7_1_0 = 0
 R2572: a3c0_24_7_1_1 = 0
 R2573: a3c0_24_7_1_2 = 0
 R2574: a3c0_24_7_2_0 = 0
 R2575: a3c0_24_7_2_1 = 0
 R2576: a3c0_24_7_2_2 = 1
 R2577: a3c0_24_7_3_0 = 0
 R2578: a3c0_24_7_3_1 = 0
 R2579: a3c0_24_7_3_2 = 0
 R2580: a3c0_24_8_1_0 = 0
 R2581: a3c0_24_8_1_1 = 0
 R2582: a3c0_24_8_1_2 = 0
 R2583: a3c0_24_8_2_0 = 0
 R2584: a3c0_24_8_2_1 = 0
 R2585: a3c0_24_8_2_2 = 0
 R2586: a3c0_24_8_3_0 = 1
 R2587: a3c0_24_8_3_1 = 0
 R2588: a3c0_24_8_3_2 = 0
 R2589: a3c0_24_9_1_0 = 0
 R2590: a3c0_24_9_1_1 = 0
 R2591: a3c0_24_9_1_2 = 0
 R2592: a3c0_24_9_2_0 = 0
 R2593: a3c0_24_9_2_1 = 0
 R2594: a3c0_24_9_2_2 = 0
 R2595: a3c0_24_9_3_0 = 0
 R2596: a3c0_24_9_3_1 = 1
 R2597: a3c0_24_9_3_2 = 0
 R2598: a3c0_24_10_1_0 = 0
 R2599: a3c0_24_10_1_1 = 0
 R2600: a3c0_24_10_1_2 = 0
 R2601: a3c0_24_10_2_0 = 0
 R2602: a3c0_24_10_2_1 = 0
 R2603: a3c0_24_10_2_2 = 0
 R2604: a3c0_24_10_3_0 = 0
 R2605: a3c0_24_10_3_1 = 0
 R2606: a3c0_24_10_3_2 = 1
 R2607: rb0_25_0_0 = 1
 R2608: rb0_25_0_1 = 0
 R2609: rb0_25_0_2 = 0
 R2610: rb0_25_0_3 = 0
 R2611: rb0_25_0_4 = 0
 R2612: rb0_25_0_5 = 0
 R2613: rb0_25_1_0 = 0
 R2614: rb0_25_1_1 = 1
 R2615: rb0_25_1_2 = 0
 R2616: rb0_25_1_3 = 0
 R2617: rb0_25_1_4 = 0
 R2618: rb0_25_1_5 = 0
 R2619: rb0_25_2_0 = 0
 R2620: rb0_25_2_1 = 0
 R2621: rb0_25_2_2 = 1
 R2622: rb0_25_2_3 = 0
 R2623: rb0_25_2_4 = 0
 R2624: rb0_25_2_5 = 0
 R2625: rb0_25_3_0 = 0
 R2626: rb0_25_3_1 = 0
 R2627: rb0_25_3_2 = 0
 R2628: rb0_25_3_3 = 1
 R2629: rb0_25_3_4 = 0
 R2630: rb0_25_3_5 = 0
 R2631: rb0_25_4_0 = 0
 R2632: rb0_25_4_1 = 0
 R2633: rb0_25_4_2 = 0
 R2634: rb0_25_4_3 = 0
 R2635: rb0_25_4_4 = 1
 R2636: rb0_25_4_5 = 0
 R2637: rb0_25_5_0 = 0
 R2638: rb0_25_5_1 = 0
 R2639: rb0_25_5_2 = 0
 R2640: rb0_25_5_3 = 0
 R2641: rb0_25_5_4 = 0
 R2642: rb0_25_5_5 = 1
 R2643: rb0_25_6_0 = 0
 R2644: rb0_25_6_1 = 0
 R2645: rb0_25_6_2 = 0
 R2646: rb0_25_6_3 = 0
 R2647: rb0_25_6_4 = 0
 R2648: rb0_25_6_5 = 0
 R2649: rb0_25_7_0 = 0
 R2650: rb0_25_7_1 = 0
 R2651: rb0_25_7_2 = 0
 R2652: rb0_25_7_3 = 0
 R2653: rb0_25_7_4 = 0
 R2654: rb0_25_7_5 = 0
 R2655: rb0_25_8_0 = 0
 R2656: rb0_25_8_1 = 0
 R2657: rb0_25_8_2 = 0
 R2658: rb0_25_8_3 = 0
 R2659: rb0_25_8_4 = 0
 R2660: rb0_25_8_5 = 0
 R2661: rb0_25_9_0 = 0
 R2662: rb0_25_9_1 = 0
 R2663: rb0_25_9_2 = 0
 R2664: rb0_25_9_3 = 0
 R2665: rb0_25_9_4 = 0
 R2666: rb0_25_9_5 = 0
 R2667: a4c0_25_0_1_0 = 0
 R2668: a4c0_25_0_1_1 = 0
 R2669: a4c0_25_0_1_2 = 0
 R2670: a4c0_25_0_1_3 = 0
 R2671: a4c0_25_1_1_0 = 0
 R2672: a4c0_25_1_1_1 = 0
 R2673: a4c0_25_1_1_2 = 0
 R2674: a4c0_25_1_1_3 = 0
 R2675: a4c0_25_2_1_0 = 0
 R2676: a4c0_25_2_1_1 = 0
 R2677: a4c0_25_2_1_2 = 0
 R2678: a4c0_25_2_1_3 = 0
 R2679: a4c0_25_3_1_0 = 0
 R2680: a4c0_25_3_1_1 = 0
 R2681: a4c0_25_3_1_2 = 0
 R2682: a4c0_25_3_1_3 = 0
 R2683: a4c0_25_4_1_0 = 0
 R2684: a4c0_25_4_1_1 = 0
 R2685: a4c0_25_4_1_2 = 0
 R2686: a4c0_25_4_1_3 = 0
 R2687: a4c0_25_5_1_0 = 0
 R2688: a4c0_25_5_1_1 = 0
 R2689: a4c0_25_5_1_2 = 0
 R2690: a4c0_25_5_1_3 = 0
 R2691: a4c0_25_6_1_0 = 1
 R2692: a4c0_25_6_1_1 = 0
 R2693: a4c0_25_6_1_2 = 0
 R2694: a4c0_25_6_1_3 = 0
 R2695: a4c0_25_7_1_0 = 0
 R2696: a4c0_25_7_1_1 = 1
 R2697: a4c0_25_7_1_2 = 0
 R2698: a4c0_25_7_1_3 = 0
 R2699: a4c0_25_8_1_0 = 0
 R2700: a4c0_25_8_1_1 = 0
 R2701: a4c0_25_8_1_2 = 1
 R2702: a4c0_25_8_1_3 = 0
 R2703: a4c0_25_9_1_0 = 0
 R2704: a4c0_25_9_1_1 = 0
 R2705: a4c0_25_9_1_2 = 0
 R2706: a4c0_25_9_1_3 = 1
 R2707: rb0_26_0_0 = 1
 R2708: rb0_26_1_0 = 0
 R2709: rb0_26_2_0 = 0
 R2710: rb0_26_3_0 = 0
 R2711: rb0_26_4_0 = 0
 R2712: rb0_26_5_0 = 0
 R2713: rb0_26_6_0 = 0
 R2714: rb0_26_7_0 = 0
 R2715: rb0_26_8_0 = 0
 R2716: a4c0_26_0_1_0 = 0
 R2717: a4c0_26_0_1_1 = 0
 R2718: a4c0_26_0_1_2 = 0
 R2719: a4c0_26_0_1_3 = 0
 R2720: a4c0_26_0_2_0 = 0
 R2721: a4c0_26_0_2_1 = 0
 R2722: a4c0_26_0_2_2 = 0
 R2723: a4c0_26_0_2_3 = 0
 R2724: a4c0_26_1_1_0 = 1
 R2725: a4c0_26_1_1_1 = 0
 R2726: a4c0_26_1_1_2 = 0
 R2727: a4c0_26_1_1_3 = 0
 R2728: a4c0_26_1_2_0 = 0
 R2729: a4c0_26_1_2_1 = 0
 R2730: a4c0_26_1_2_2 = 0
 R2731: a4c0_26_1_2_3 = 0
 R2732: a4c0_26_2_1_0 = 0
 R2733: a4c0_26_2_1_1 = 1
 R2734: a4c0_26_2_1_2 = 0
 R2735: a4c0_26_2_1_3 = 0
 R2736: a4c0_26_2_2_0 = 0
 R2737: a4c0_26_2_2_1 = 0
 R2738: a4c0_26_2_2_2 = 0
 R2739: a4c0_26_2_2_3 = 0
 R2740: a4c0_26_3_1_0 = 0
 R2741: a4c0_26_3_1_1 = 0
 R2742: a4c0_26_3_1_2 = 1
 R2743: a4c0_26_3_1_3 = 0
 R2744: a4c0_26_3_2_0 = 0
 R2745: a4c0_26_3_2_1 = 0
 R2746: a4c0_26_3_2_2 = 0
 R2747: a4c0_26_3_2_3 = 0
 R2748: a4c0_26_4_1_0 = 0
 R2749: a4c0_26_4_1_1 = 0
 R2750: a4c0_26_4_1_2 = 0
 R2751: a4c0_26_4_1_3 = 1
 R2752: a4c0_26_4_2_0 = 0
 R2753: a4c0_26_4_2_1 = 0
 R2754: a4c0_26_4_2_2 = 0
 R2755: a4c0_26_4_2_3 = 0
 R2756: a4c0_26_5_1_0 = 0
 R2757: a4c0_26_5_1_1 = 0
 R2758: a4c0_26_5_1_2 = 0
 R2759: a4c0_26_5_1_3 = 0
 R2760: a4c0_26_5_2_0 = 1
 R2761: a4c0_26_5_2_1 = 0
 R2762: a4c0_26_5_2_2 = 0
 R2763: a4c0_26_5_2_3 = 0
 R2764: a4c0_26_6_1_0 = 0
 R2765: a4c0_26_6_1_1 = 0
 R2766: a4c0_26_6_1_2 = 0
 R2767: a4c0_26_6_1_3 = 0
 R2768: a4c0_26_6_2_0 = 0
 R2769: a4c0_26_6_2_1 = 1
 R2770: a4c0_26_6_2_2 = 0
 R2771: a4c0_26_6_2_3 = 0
 R2772: a4c0_26_7_1_0 = 0
 R2773: a4c0_26_7_1_1 = 0
 R2774: a4c0_26_7_1_2 = 0
 R2775: a4c0_26_7_1_3 = 0
 R2776: a4c0_26_7_2_0 = 0
 R2777: a4c0_26_7_2_1 = 0
 R2778: a4c0_26_7_2_2 = 1
 R2779: a4c0_26_7_2_3 = 0
 R2780: a4c0_26_8_1_0 = 0
 R2781: a4c0_26_8_1_1 = 0
 R2782: a4c0_26_8_1_2 = 0
 R2783: a4c0_26_8_1_3 = 0
 R2784: a4c0_26_8_2_0 = 0
 R2785: a4c0_26_8_2_1 = 0
 R2786: a4c0_26_8_2_2 = 0
 R2787: a4c0_26_8_2_3 = 1
 R2788: rb0_27_0_0 = 1
 R2789: rb0_27_0_1 = 0
 R2790: rb0_27_1_0 = 0
 R2791: rb0_27_1_1 = 1
 R2792: rb0_27_2_0 = 0
 R2793: rb0_27_2_1 = 0
 R2794: rb0_27_3_0 = 0
 R2795: rb0_27_3_1 = 0
 R2796: rb0_27_4_0 = 0
 R2797: rb0_27_4_1 = 0
 R2798: rb0_27_5_0 = 0
 R2799: rb0_27_5_1 = 0
 R2800: rb0_27_6_0 = 0
 R2801: rb0_27_6_1 = 0
 R2802: rb0_27_7_0 = 0
 R2803: rb0_27_7_1 = 0
 R2804: a3c0_27_0_1_0 = 0
 R2805: a3c0_27_0_1_1 = 0
 R2806: a3c0_27_0_1_2 = 0
 R2807: a3c0_27_0_2_0 = 0
 R2808: a3c0_27_0_2_1 = 0
 R2809: a3c0_27_0_2_2 = 0
 R2810: a3c0_27_1_1_0 = 0
 R2811: a3c0_27_1_1_1 = 0
 R2812: a3c0_27_1_1_2 = 0
 R2813: a3c0_27_1_2_0 = 0
 R2814: a3c0_27_1_2_1 = 0
 R2815: a3c0_27_1_2_2 = 0
 R2816: a3c0_27_2_1_0 = 1
 R2817: a3c0_27_2_1_1 = 0
 R2818: a3c0_27_2_1_2 = 0
 R2819: a3c0_27_2_2_0 = 0
 R2820: a3c0_27_2_2_1 = 0
 R2821: a3c0_27_2_2_2 = 0
 R2822: a3c0_27_3_1_0 = 0
 R2823: a3c0_27_3_1_1 = 1
 R2824: a3c0_27_3_1_2 = 0
 R2825: a3c0_27_3_2_0 = 0
 R2826: a3c0_27_3_2_1 = 0
 R2827: a3c0_27_3_2_2 = 0
 R2828: a3c0_27_4_1_0 = 0
 R2829: a3c0_27_4_1_1 = 0
 R2830: a3c0_27_4_1_2 = 1
 R2831: a3c0_27_4_2_0 = 0
 R2832: a3c0_27_4_2_1 = 0
 R2833: a3c0_27_4_2_2 = 0
 R2834: a3c0_27_5_1_0 = 0
 R2835: a3c0_27_5_1_1 = 0
 R2836: a3c0_27_5_1_2 = 0
 R2837: a3c0_27_5_2_0 = 1
 R2838: a3c0_27_5_2_1 = 0
 R2839: a3c0_27_5_2_2 = 0
 R2840: a3c0_27_6_1_0 = 0
 R2841: a3c0_27_6_1_1 = 0
 R2842: a3c0_27_6_1_2 = 0
 R2843: a3c0_27_6_2_0 = 0
 R2844: a3c0_27_6_2_1 = 1
 R2845: a3c0_27_6_2_2 = 0
 R2846: a3c0_27_7_1_0 = 0
 R2847: a3c0_27_7_1_1 = 0
 R2848: a3c0_27_7_1_2 = 0
 R2849: a3c0_27_7_2_0 = 0
 R2850: a3c0_27_7_2_1 = 0
 R2851: a3c0_27_7_2_2 = 1
 R2852: rb0_28_0_0 = 1
 R2853: rb0_28_1_0 = 0
 R2854: rb0_28_2_0 = 0
 R2855: rb0_28_3_0 = 0
 R2856: rb0_28_4_0 = 0
 R2857: rb0_28_5_0 = 0
 R2858: rb0_28_6_0 = 0
 R2859: a3c0_28_0_1_0 = 0
 R2860: a3c0_28_0_1_1 = 0
 R2861: a3c0_28_0_1_2 = 0
 R2862: a3c0_28_0_2_0 = 0
 R2863: a3c0_28_0_2_1 = 0
 R2864: a3c0_28_0_2_2 = 0
 R2865: a3c0_28_1_1_0 = 1
 R2866: a3c0_28_1_1_1 = 0
 R2867: a3c0_28_1_1_2 = 0
 R2868: a3c0_28_1_2_0 = 0
 R2869: a3c0_28_1_2_1 = 0
 R2870: a3c0_28_1_2_2 = 0
 R2871: a3c0_28_2_1_0 = 0
 R2872: a3c0_28_2_1_1 = 1
 R2873: a3c0_28_2_1_2 = 0
 R2874: a3c0_28_2_2_0 = 0
 R2875: a3c0_28_2_2_1 = 0
 R2876: a3c0_28_2_2_2 = 0
 R2877: a3c0_28_3_1_0 = 0
 R2878: a3c0_28_3_1_1 = 0
 R2879: a3c0_28_3_1_2 = 1
 R2880: a3c0_28_3_2_0 = 0
 R2881: a3c0_28_3_2_1 = 0
 R2882: a3c0_28_3_2_2 = 0
 R2883: a3c0_28_4_1_0 = 0
 R2884: a3c0_28_4_1_1 = 0
 R2885: a3c0_28_4_1_2 = 0
 R2886: a3c0_28_4_2_0 = 1
 R2887: a3c0_28_4_2_1 = 0
 R2888: a3c0_28_4_2_2 = 0
 R2889: a3c0_28_5_1_0 = 0
 R2890: a3c0_28_5_1_1 = 0
 R2891: a3c0_28_5_1_2 = 0
 R2892: a3c0_28_5_2_0 = 0
 R2893: a3c0_28_5_2_1 = 1
 R2894: a3c0_28_5_2_2 = 0
 R2895: a3c0_28_6_1_0 = 0
 R2896: a3c0_28_6_1_1 = 0
 R2897: a3c0_28_6_1_2 = 0
 R2898: a3c0_28_6_2_0 = 0
 R2899: a3c0_28_6_2_1 = 0
 R2900: a3c0_28_6_2_2 = 1
 R2901: rb0_29_0_0 = 1
 R2902: rb0_29_0_1 = 0
 R2903: rb0_29_0_2 = 0
 R2904: rb0_29_0_3 = 0
 R2905: rb0_29_0_4 = 0
 R2906: rb0_29_0_5 = 0
 R2907: rb0_29_1_0 = 0
 R2908: rb0_29_1_1 = 1
 R2909: rb0_29_1_2 = 0
 R2910: rb0_29_1_3 = 0
 R2911: rb0_29_1_4 = 0
 R2912: rb0_29_1_5 = 0
 R2913: rb0_29_2_0 = 0
 R2914: rb0_29_2_1 = 0
 R2915: rb0_29_2_2 = 1
 R2916: rb0_29_2_3 = 0
 R2917: rb0_29_2_4 = 0
 R2918: rb0_29_2_5 = 0
 R2919: rb0_29_3_0 = 0
 R2920: rb0_29_3_1 = 0
 R2921: rb0_29_3_2 = 0
 R2922: rb0_29_3_3 = 1
 R2923: rb0_29_3_4 = 0
 R2924: rb0_29_3_5 = 0
 R2925: rb0_29_4_0 = 0
 R2926: rb0_29_4_1 = 0
 R2927: rb0_29_4_2 = 0
 R2928: rb0_29_4_3 = 0
 R2929: rb0_29_4_4 = 1
 R2930: rb0_29_4_5 = 0
 R2931: rb0_29_5_0 = 0
 R2932: rb0_29_5_1 = 0
 R2933: rb0_29_5_2 = 0
 R2934: rb0_29_5_3 = 0
 R2935: rb0_29_5_4 = 0
 R2936: rb0_29_5_5 = 1
 R2937: rb0_30_0_0 = 1
 R2938: rb0_30_0_1 = 0
 R2939: rb0_30_0_2 = 0
 R2940: rb0_30_0_3 = 0
 R2941: rb0_30_0_4 = 0
 R2942: rb0_30_1_0 = 0
 R2943: rb0_30_1_1 = 1
 R2944: rb0_30_1_2 = 0
 R2945: rb0_30_1_3 = 0
 R2946: rb0_30_1_4 = 0
 R2947: rb0_30_2_0 = 0
 R2948: rb0_30_2_1 = 0
 R2949: rb0_30_2_2 = 1
 R2950: rb0_30_2_3 = 0
 R2951: rb0_30_2_4 = 0
 R2952: rb0_30_3_0 = 0
 R2953: rb0_30_3_1 = 0
 R2954: rb0_30_3_2 = 0
 R2955: rb0_30_3_3 = 1
 R2956: rb0_30_3_4 = 0
 R2957: rb0_30_4_0 = 0
 R2958: rb0_30_4_1 = 0
 R2959: rb0_30_4_2 = 0
 R2960: rb0_30_4_3 = 0
 R2961: rb0_30_4_4 = 1
 R2962: rb0_31_0_0 = 1
 R2963: rb0_31_0_1 = 0
 R2964: rb0_31_0_2 = 0
 R2965: rb0_31_0_3 = 0
 R2966: rb0_31_1_0 = 0
 R2967: rb0_31_1_1 = 1
 R2968: rb0_31_1_2 = 0
 R2969: rb0_31_1_3 = 0
 R2970: rb0_31_2_0 = 0
 R2971: rb0_31_2_1 = 0
 R2972: rb0_31_2_2 = 1
 R2973: rb0_31_2_3 = 0
 R2974: rb0_31_3_0 = 0
 R2975: rb0_31_3_1 = 0
 R2976: rb0_31_3_2 = 0
 R2977: rb0_31_3_3 = 1
 R2978: rb0_32_0_0 = 1
 R2979: rb0_32_0_1 = 0
 R2980: rb0_32_0_2 = 0
 R2981: rb0_32_1_0 = 0
 R2982: rb0_32_1_1 = 1
 R2983: rb0_32_1_2 = 0
 R2984: rb0_32_2_0 = 0
 R2985: rb0_32_2_1 = 0
 R2986: rb0_32_2_2 = 1
 R2987: rb0_33_0_0 = 1
 R2988: rb0_33_0_1 = 0
 R2989: rb0_33_1_0 = 0
 R2990: rb0_33_1_1 = 1
 R2991: rb0_34_0_0 = 1
 R2992: - medcol1_0 = 0
 R2993: - medcol1_1 = 0
 R2994: - medcol1_2 = 0
 R2995: - medcol1_3 = 0
 R2996: rb1_4_0_0 = 1
 R2997: rb1_4_0_0 = 1
 R2998: - medcol1_4 = 0
 R2999: rb1_5_0_0 + rb1_5_1_0 = 1
 R3000: rb1_5_0_1 + rb1_5_1_1 = 1
 R3001: rb1_5_0_0 + rb1_5_0_1 = 1
 R3002: rb1_5_1_0 + rb1_5_1_1 = 1
 R3003: - medcol1_5 = 0
 R3004: f1_6_0_1_0 + f1_6_1_1_0 + f1_6_2_1_0 = 1
 R3005: f1_6_0_1_1 + f1_6_1_1_1 + f1_6_2_1_1 = 1
 R3006: f1_6_0_1_2 + f1_6_1_1_2 + f1_6_2_1_2 = 1
 R3007: f1_6_0_1_0 + f1_6_0_1_1 + f1_6_0_1_2 = 1
 R3008: f1_6_1_1_0 + f1_6_1_1_1 + f1_6_1_1_2 = 1
 R3009: f1_6_2_1_0 + f1_6_2_1_1 + f1_6_2_1_2 = 1
 R3010: - medcol1_6 = 0
 R3011: rb1_7_0_0 + rb1_7_1_0 + rb1_7_2_0 + rb1_7_3_0 = 1
 R3012: rb1_7_0_1 + rb1_7_1_1 + rb1_7_2_1 + rb1_7_3_1 = 1
 R3013: rb1_7_0_2 + rb1_7_1_2 + rb1_7_2_2 + rb1_7_3_2 = 1
 R3014: rb1_7_0_3 + rb1_7_1_3 + rb1_7_2_3 + rb1_7_3_3 = 1
 R3015: rb1_7_0_0 + rb1_7_0_1 + rb1_7_0_2 + rb1_7_0_3 = 1
 R3016: rb1_7_1_0 + rb1_7_1_1 + rb1_7_1_2 + rb1_7_1_3 = 1
 R3017: rb1_7_2_0 + rb1_7_2_1 + rb1_7_2_2 + rb1_7_2_3 = 1
 R3018: rb1_7_3_0 + rb1_7_3_1 + rb1_7_3_2 + rb1_7_3_3 = 1
 R3019: - medcol1_7 = 0
 R3020: rb1_8_0_0 + rb1_8_1_0 + rb1_8_2_0 + rb1_8_3_0 + rb1_8_4_0
   + rb1_8_5_0 + rb1_8_6_0 = 1
 R3021: f1_8_0_1_0 + f1_8_1_1_0 + f1_8_2_1_0 + f1_8_3_1_0 + f1_8_4_1_0
   + f1_8_5_1_0 + f1_8_6_1_0 = 1
 R3022: f1_8_0_1_1 + f1_8_1_1_1 + f1_8_2_1_1 + f1_8_3_1_1 + f1_8_4_1_1
   + f1_8_5_1_1 + f1_8_6_1_1 = 1
 R3023: f1_8_0_1_2 + f1_8_1_1_2 + f1_8_2_1_2 + f1_8_3_1_2 + f1_8_4_1_2
   + f1_8_5_1_2 + f1_8_6_1_2 = 1
 R3024: f1_8_0_2_0 + f1_8_1_2_0 + f1_8_2_2_0 + f1_8_3_2_0 + f1_8_4_2_0
   + f1_8_5_2_0 + f1_8_6_2_0 = 1
 R3025: f1_8_0_2_1 + f1_8_1_2_1 + f1_8_2_2_1 + f1_8_3_2_1 + f1_8_4_2_1
   + f1_8_5_2_1 + f1_8_6_2_1 = 1
 R3026: f1_8_0_2_2 + f1_8_1_2_2 + f1_8_2_2_2 + f1_8_3_2_2 + f1_8_4_2_2
   + f1_8_5_2_2 + f1_8_6_2_2 = 1
 R3027: rb1_8_0_0 + f1_8_0_1_0 + f1_8_0_1_1 + f1_8_0_1_2 + f1_8_0_2_0
   + f1_8_0_2_1 + f1_8_0_2_2 = 1
 R3028: rb1_8_1_0 + f1_8_1_1_0 + f1_8_1_1_1 + f1_8_1_1_2 + f1_8_1_2_0
   + f1_8_1_2_1 + f1_8_1_2_2 = 1
 R3029: rb1_8_2_0 + f1_8_2_1_0 + f1_8_2_1_1 + f1_8_2_1_2 + f1_8_2_2_0
   + f1_8_2_2_1 + f1_8_2_2_2 = 1
 R3030: rb1_8_3_0 + f1_8_3_1_0 + f1_8_3_1_1 + f1_8_3_1_2 + f1_8_3_2_0
   + f1_8_3_2_1 + f1_8_3_2_2 = 1
 R3031: rb1_8_4_0 + f1_8_4_1_0 + f1_8_4_1_1 + f1_8_4_1_2 + f1_8_4_2_0
   + f1_8_4_2_1 + f1_8_4_2_2 = 1
 R3032: rb1_8_5_0 + f1_8_5_1_0 + f1_8_5_1_1 + f1_8_5_1_2 + f1_8_5_2_0
   + f1_8_5_2_1 + f1_8_5_2_2 = 1
 R3033: rb1_8_6_0 + f1_8_6_1_0 + f1_8_6_1_1 + f1_8_6_1_2 + f1_8_6_2_0
   + f1_8_6_2_1 + f1_8_6_2_2 = 1
 R3034: - medcol1_8 = 0
 R3035: rb1_9_0_0 + rb1_9_1_0 + rb1_9_2_0 + rb1_9_3_0 = 1
 R3036: f1_9_0_1_0 + f1_9_1_1_0 + f1_9_2_1_0 + f1_9_3_1_0 = 1
 R3037: f1_9_0_1_1 + f1_9_1_1_1 + f1_9_2_1_1 + f1_9_3_1_1 = 1
 R3038: f1_9_0_1_2 + f1_9_1_1_2 + f1_9_2_1_2 + f1_9_3_1_2 = 1
 R3039: rb1_9_0_0 + f1_9_0_1_0 + f1_9_0_1_1 + f1_9_0_1_2 = 1
 R3040: rb1_9_1_0 + f1_9_1_1_0 + f1_9_1_1_1 + f1_9_1_1_2 = 1
 R3041: rb1_9_2_0 + f1_9_2_1_0 + f1_9_2_1_1 + f1_9_2_1_2 = 1
 R3042: rb1_9_3_0 + f1_9_3_1_0 + f1_9_3_1_1 + f1_9_3_1_2 = 1
 R3043: - medcol1_9 = 0
 R3044: f1_10_0_1_0 + f1_10_1_1_0 + f1_10_2_1_0 + f1_10_3_1_0 + f1_10_4_1_0
   + f1_10_5_1_0 = 1
 R3045: f1_10_0_1_1 + f1_10_1_1_1 + f1_10_2_1_1 + f1_10_3_1_1 + f1_10_4_1_1
   + f1_10_5_1_1 = 1
 R3046: f1_10_0_1_2 + f1_10_1_1_2 + f1_10_2_1_2 + f1_10_3_1_2 + f1_10_4_1_2
   + f1_10_5_1_2 = 1
 R3047: f1_10_0_2_0 + f1_10_1_2_0 + f1_10_2_2_0 + f1_10_3_2_0 + f1_10_4_2_0
   + f1_10_5_2_0 = 1
 R3048: f1_10_0_2_1 + f1_10_1_2_1 + f1_10_2_2_1 + f1_10_3_2_1 + f1_10_4_2_1
   + f1_10_5_2_1 = 1
 R3049: f1_10_0_2_2 + f1_10_1_2_2 + f1_10_2_2_2 + f1_10_3_2_2 + f1_10_4_2_2
   + f1_10_5_2_2 = 1
 R3050: f1_10_0_1_0 + f1_10_0_1_1 + f1_10_0_1_2 + f1_10_0_2_0 + f1_10_0_2_1
   + f1_10_0_2_2 = 1
 R3051: f1_10_1_1_0 + f1_10_1_1_1 + f1_10_1_1_2 + f1_10_1_2_0 + f1_10_1_2_1
   + f1_10_1_2_2 = 1
 R3052: f1_10_2_1_0 + f1_10_2_1_1 + f1_10_2_1_2 + f1_10_2_2_0 + f1_10_2_2_1
   + f1_10_2_2_2 = 1
 R3053: f1_10_3_1_0 + f1_10_3_1_1 + f1_10_3_1_2 + f1_10_3_2_0 + f1_10_3_2_1
   + f1_10_3_2_2 = 1
 R3054: f1_10_4_1_0 + f1_10_4_1_1 + f1_10_4_1_2 + f1_10_4_2_0 + f1_10_4_2_1
   + f1_10_4_2_2 = 1
 R3055: f1_10_5_1_0 + f1_10_5_1_1 + f1_10_5_1_2 + f1_10_5_2_0 + f1_10_5_2_1
   + f1_10_5_2_2 = 1
 R3056: - medcol1_10 = 0
 R3057: f1_11_0_1_0 + f1_11_1_1_0 + f1_11_2_1_0 + f1_11_3_1_0 + f1_11_4_1_0
   + f1_11_5_1_0 = 1
 R3058: f1_11_0_1_1 + f1_11_1_1_1 + f1_11_2_1_1 + f1_11_3_1_1 + f1_11_4_1_1
   + f1_11_5_1_1 = 1
 R3059: f1_11_0_1_2 + f1_11_1_1_2 + f1_11_2_1_2 + f1_11_3_1_2 + f1_11_4_1_2
   + f1_11_5_1_2 = 1
 R3060: f1_11_0_2_0 + f1_11_1_2_0 + f1_11_2_2_0 + f1_11_3_2_0 + f1_11_4_2_0
   + f1_11_5_2_0 = 1
 R3061: f1_11_0_2_1 + f1_11_1_2_1 + f1_11_2_2_1 + f1_11_3_2_1 + f1_11_4_2_1
   + f1_11_5_2_1 = 1
 R3062: f1_11_0_2_2 + f1_11_1_2_2 + f1_11_2_2_2 + f1_11_3_2_2 + f1_11_4_2_2
   + f1_11_5_2_2 = 1
 R3063: f1_11_0_1_0 + f1_11_0_1_1 + f1_11_0_1_2 + f1_11_0_2_0 + f1_11_0_2_1
   + f1_11_0_2_2 = 1
 R3064: f1_11_1_1_0 + f1_11_1_1_1 + f1_11_1_1_2 + f1_11_1_2_0 + f1_11_1_2_1
   + f1_11_1_2_2 = 1
 R3065: f1_11_2_1_0 + f1_11_2_1_1 + f1_11_2_1_2 + f1_11_2_2_0 + f1_11_2_2_1
   + f1_11_2_2_2 = 1
 R3066: f1_11_3_1_0 + f1_11_3_1_1 + f1_11_3_1_2 + f1_11_3_2_0 + f1_11_3_2_1
   + f1_11_3_2_2 = 1
 R3067: f1_11_4_1_0 + f1_11_4_1_1 + f1_11_4_1_2 + f1_11_4_2_0 + f1_11_4_2_1
   + f1_11_4_2_2 = 1
 R3068: f1_11_5_1_0 + f1_11_5_1_1 + f1_11_5_1_2 + f1_11_5_2_0 + f1_11_5_2_1
   + f1_11_5_2_2 = 1
 R3069: - medcol1_11 = 0
 R3070: f1_12_0_1_0 + f1_12_1_1_0 + f1_12_2_1_0 + f1_12_3_1_0 + f1_12_4_1_0
   + f1_12_5_1_0 = 1
 R3071: f1_12_0_1_1 + f1_12_1_1_1 + f1_12_2_1_1 + f1_12_3_1_1 + f1_12_4_1_1
   + f1_12_5_1_1 = 1
 R3072: f1_12_0_1_2 + f1_12_1_1_2 + f1_12_2_1_2 + f1_12_3_1_2 + f1_12_4_1_2
   + f1_12_5_1_2 = 1
 R3073: f1_12_0_2_0 + f1_12_1_2_0 + f1_12_2_2_0 + f1_12_3_2_0 + f1_12_4_2_0
   + f1_12_5_2_0 = 1
 R3074: f1_12_0_2_1 + f1_12_1_2_1 + f1_12_2_2_1 + f1_12_3_2_1 + f1_12_4_2_1
   + f1_12_5_2_1 = 1
 R3075: f1_12_0_2_2 + f1_12_1_2_2 + f1_12_2_2_2 + f1_12_3_2_2 + f1_12_4_2_2
   + f1_12_5_2_2 = 1
 R3076: f1_12_0_1_0 + f1_12_0_1_1 + f1_12_0_1_2 + f1_12_0_2_0 + f1_12_0_2_1
   + f1_12_0_2_2 = 1
 R3077: f1_12_1_1_0 + f1_12_1_1_1 + f1_12_1_1_2 + f1_12_1_2_0 + f1_12_1_2_1
   + f1_12_1_2_2 = 1
 R3078: f1_12_2_1_0 + f1_12_2_1_1 + f1_12_2_1_2 + f1_12_2_2_0 + f1_12_2_2_1
   + f1_12_2_2_2 = 1
 R3079: f1_12_3_1_0 + f1_12_3_1_1 + f1_12_3_1_2 + f1_12_3_2_0 + f1_12_3_2_1
   + f1_12_3_2_2 = 1
 R3080: f1_12_4_1_0 + f1_12_4_1_1 + f1_12_4_1_2 + f1_12_4_2_0 + f1_12_4_2_1
   + f1_12_4_2_2 = 1
 R3081: f1_12_5_1_0 + f1_12_5_1_1 + f1_12_5_1_2 + f1_12_5_2_0 + f1_12_5_2_1
   + f1_12_5_2_2 = 1
 R3082: - medcol1_12 = 0
 R3083: rb1_13_0_0 + rb1_13_1_0 + rb1_13_2_0 + rb1_13_3_0 + rb1_13_4_0
   + rb1_13_5_0 + rb1_13_6_0 = 1
 R3084: f1_13_0_1_0 + f1_13_1_1_0 + f1_13_2_1_0 + f1_13_3_1_0 + f1_13_4_1_0
   + f1_13_5_1_0 + f1_13_6_1_0 = 1
 R3085: f1_13_0_1_1 + f1_13_1_1_1 + f1_13_2_1_1 + f1_13_3_1_1 + f1_13_4_1_1
   + f1_13_5_1_1 + f1_13_6_1_1 = 1
 R3086: f1_13_0_1_2 + f1_13_1_1_2 + f1_13_2_1_2 + f1_13_3_1_2 + f1_13_4_1_2
   + f1_13_5_1_2 + f1_13_6_1_2 = 1
 R3087: f1_13_0_2_0 + f1_13_1_2_0 + f1_13_2_2_0 + f1_13_3_2_0 + f1_13_4_2_0
   + f1_13_5_2_0 + f1_13_6_2_0 = 1
 R3088: f1_13_0_2_1 + f1_13_1_2_1 + f1_13_2_2_1 + f1_13_3_2_1 + f1_13_4_2_1
   + f1_13_5_2_1 + f1_13_6_2_1 = 1
 R3089: f1_13_0_2_2 + f1_13_1_2_2 + f1_13_2_2_2 + f1_13_3_2_2 + f1_13_4_2_2
   + f1_13_5_2_2 + f1_13_6_2_2 = 1
 R3090: rb1_13_0_0 + f1_13_0_1_0 + f1_13_0_1_1 + f1_13_0_1_2 + f1_13_0_2_0
   + f1_13_0_2_1 + f1_13_0_2_2 = 1
 R3091: rb1_13_1_0 + f1_13_1_1_0 + f1_13_1_1_1 + f1_13_1_1_2 + f1_13_1_2_0
   + f1_13_1_2_1 + f1_13_1_2_2 = 1
 R3092: rb1_13_2_0 + f1_13_2_1_0 + f1_13_2_1_1 + f1_13_2_1_2 + f1_13_2_2_0
   + f1_13_2_2_1 + f1_13_2_2_2 = 1
 R3093: rb1_13_3_0 + f1_13_3_1_0 + f1_13_3_1_1 + f1_13_3_1_2 + f1_13_3_2_0
   + f1_13_3_2_1 + f1_13_3_2_2 = 1
 R3094: rb1_13_4_0 + f1_13_4_1_0 + f1_13_4_1_1 + f1_13_4_1_2 + f1_13_4_2_0
   + f1_13_4_2_1 + f1_13_4_2_2 = 1
 R3095: rb1_13_5_0 + f1_13_5_1_0 + f1_13_5_1_1 + f1_13_5_1_2 + f1_13_5_2_0
   + f1_13_5_2_1 + f1_13_5_2_2 = 1
 R3096: rb1_13_6_0 + f1_13_6_1_0 + f1_13_6_1_1 + f1_13_6_1_2 + f1_13_6_2_0
   + f1_13_6_2_1 + f1_13_6_2_2 = 1
 R3097: - medcol1_13 = 0
 R3098: f1_14_0_1_0 + f1_14_1_1_0 + f1_14_2_1_0 + f1_14_3_1_0 + f1_14_4_1_0
   + f1_14_5_1_0 + f1_14_6_1_0 + f1_14_7_1_0 + f1_14_8_1_0 = 1
 R3099: f1_14_0_1_1 + f1_14_1_1_1 + f1_14_2_1_1 + f1_14_3_1_1 + f1_14_4_1_1
   + f1_14_5_1_1 + f1_14_6_1_1 + f1_14_7_1_1 + f1_14_8_1_1 = 1
 R3100: f1_14_0_1_2 + f1_14_1_1_2 + f1_14_2_1_2 + f1_14_3_1_2 + f1_14_4_1_2
   + f1_14_5_1_2 + f1_14_6_1_2 + f1_14_7_1_2 + f1_14_8_1_2 = 1
 R3101: f1_14_0_2_0 + f1_14_1_2_0 + f1_14_2_2_0 + f1_14_3_2_0 + f1_14_4_2_0
   + f1_14_5_2_0 + f1_14_6_2_0 + f1_14_7_2_0 + f1_14_8_2_0 = 1
 R3102: f1_14_0_2_1 + f1_14_1_2_1 + f1_14_2_2_1 + f1_14_3_2_1 + f1_14_4_2_1
   + f1_14_5_2_1 + f1_14_6_2_1 + f1_14_7_2_1 + f1_14_8_2_1 = 1
 R3103: f1_14_0_2_2 + f1_14_1_2_2 + f1_14_2_2_2 + f1_14_3_2_2 + f1_14_4_2_2
   + f1_14_5_2_2 + f1_14_6_2_2 + f1_14_7_2_2 + f1_14_8_2_2 = 1
 R3104: f1_14_0_3_0 + f1_14_1_3_0 + f1_14_2_3_0 + f1_14_3_3_0 + f1_14_4_3_0
   + f1_14_5_3_0 + f1_14_6_3_0 + f1_14_7_3_0 + f1_14_8_3_0 = 1
 R3105: f1_14_0_3_1 + f1_14_1_3_1 + f1_14_2_3_1 + f1_14_3_3_1 + f1_14_4_3_1
   + f1_14_5_3_1 + f1_14_6_3_1 + f1_14_7_3_1 + f1_14_8_3_1 = 1
 R3106: f1_14_0_3_2 + f1_14_1_3_2 + f1_14_2_3_2 + f1_14_3_3_2 + f1_14_4_3_2
   + f1_14_5_3_2 + f1_14_6_3_2 + f1_14_7_3_2 + f1_14_8_3_2 = 1
 R3107: f1_14_0_1_0 + f1_14_0_1_1 + f1_14_0_1_2 + f1_14_0_2_0 + f1_14_0_2_1
   + f1_14_0_2_2 + f1_14_0_3_0 + f1_14_0_3_1 + f1_14_0_3_2 = 1
 R3108: f1_14_1_1_0 + f1_14_1_1_1 + f1_14_1_1_2 + f1_14_1_2_0 + f1_14_1_2_1
   + f1_14_1_2_2 + f1_14_1_3_0 + f1_14_1_3_1 + f1_14_1_3_2 = 1
 R3109: f1_14_2_1_0 + f1_14_2_1_1 + f1_14_2_1_2 + f1_14_2_2_0 + f1_14_2_2_1
   + f1_14_2_2_2 + f1_14_2_3_0 + f1_14_2_3_1 + f1_14_2_3_2 = 1
 R3110: f1_14_3_1_0 + f1_14_3_1_1 + f1_14_3_1_2 + f1_14_3_2_0 + f1_14_3_2_1
   + f1_14_3_2_2 + f1_14_3_3_0 + f1_14_3_3_1 + f1_14_3_3_2 = 1
 R3111: f1_14_4_1_0 + f1_14_4_1_1 + f1_14_4_1_2 + f1_14_4_2_0 + f1_14_4_2_1
   + f1_14_4_2_2 + f1_14_4_3_0 + f1_14_4_3_1 + f1_14_4_3_2 = 1
 R3112: f1_14_5_1_0 + f1_14_5_1_1 + f1_14_5_1_2 + f1_14_5_2_0 + f1_14_5_2_1
   + f1_14_5_2_2 + f1_14_5_3_0 + f1_14_5_3_1 + f1_14_5_3_2 = 1
 R3113: f1_14_6_1_0 + f1_14_6_1_1 + f1_14_6_1_2 + f1_14_6_2_0 + f1_14_6_2_1
   + f1_14_6_2_2 + f1_14_6_3_0 + f1_14_6_3_1 + f1_14_6_3_2 = 1
 R3114: f1_14_7_1_0 + f1_14_7_1_1 + f1_14_7_1_2 + f1_14_7_2_0 + f1_14_7_2_1
   + f1_14_7_2_2 + f1_14_7_3_0 + f1_14_7_3_1 + f1_14_7_3_2 = 1
 R3115: f1_14_8_1_0 + f1_14_8_1_1 + f1_14_8_1_2 + f1_14_8_2_0 + f1_14_8_2_1
   + f1_14_8_2_2 + f1_14_8_3_0 + f1_14_8_3_1 + f1_14_8_3_2 = 1
 R3116: - medcol1_14 = 0
 R3117: rb1_15_0_0 + rb1_15_1_0 + rb1_15_2_0 + rb1_15_3_0 = 1
 R3118: f1_15_0_1_0 + f1_15_1_1_0 + f1_15_2_1_0 + f1_15_3_1_0 = 1
 R3119: f1_15_0_1_1 + f1_15_1_1_1 + f1_15_2_1_1 + f1_15_3_1_1 = 1
 R3120: f1_15_0_1_2 + f1_15_1_1_2 + f1_15_2_1_2 + f1_15_3_1_2 = 1
 R3121: rb1_15_0_0 + f1_15_0_1_0 + f1_15_0_1_1 + f1_15_0_1_2 = 1
 R3122: rb1_15_1_0 + f1_15_1_1_0 + f1_15_1_1_1 + f1_15_1_1_2 = 1
 R3123: rb1_15_2_0 + f1_15_2_1_0 + f1_15_2_1_1 + f1_15_2_1_2 = 1
 R3124: rb1_15_3_0 + f1_15_3_1_0 + f1_15_3_1_1 + f1_15_3_1_2 = 1
 R3125: - medcol1_15 = 0
 R3126: rb1_16_0_0 + rb1_16_1_0 + rb1_16_2_0 + rb1_16_3_0 + rb1_16_4_0
   + rb1_16_5_0 + rb1_16_6_0 = 1
 R3127: rb1_16_0_1 + rb1_16_1_1 + rb1_16_2_1 + rb1_16_3_1 + rb1_16_4_1
   + rb1_16_5_1 + rb1_16_6_1 = 1
 R3128: rb1_16_0_2 + rb1_16_1_2 + rb1_16_2_2 + rb1_16_3_2 + rb1_16_4_2
   + rb1_16_5_2 + rb1_16_6_2 = 1
 R3129: rb1_16_0_3 + rb1_16_1_3 + rb1_16_2_3 + rb1_16_3_3 + rb1_16_4_3
   + rb1_16_5_3 + rb1_16_6_3 = 1
 R3130: a3c1_16_0_1_0 + a3c1_16_1_1_0 + a3c1_16_2_1_0 + a3c1_16_3_1_0
   + a3c1_16_4_1_0 + a3c1_16_5_1_0 + a3c1_16_6_1_0 = 1
 R3131: a3c1_16_0_1_1 + a3c1_16_1_1_1 + a3c1_16_2_1_1 + a3c1_16_3_1_1
   + a3c1_16_4_1_1 + a3c1_16_5_1_1 + a3c1_16_6_1_1 = 1
 R3132: a3c1_16_0_1_2 + a3c1_16_1_1_2 + a3c1_16_2_1_2 + a3c1_16_3_1_2
   + a3c1_16_4_1_2 + a3c1_16_5_1_2 + a3c1_16_6_1_2 = 1
 R3133: rb1_16_0_0 + rb1_16_0_1 + rb1_16_0_2 + rb1_16_0_3 + a3c1_16_0_1_0
   + a3c1_16_0_1_1 + a3c1_16_0_1_2 = 1
 R3134: rb1_16_1_0 + rb1_16_1_1 + rb1_16_1_2 + rb1_16_1_3 + a3c1_16_1_1_0
   + a3c1_16_1_1_1 + a3c1_16_1_1_2 = 1
 R3135: rb1_16_2_0 + rb1_16_2_1 + rb1_16_2_2 + rb1_16_2_3 + a3c1_16_2_1_0
   + a3c1_16_2_1_1 + a3c1_16_2_1_2 = 1
 R3136: rb1_16_3_0 + rb1_16_3_1 + rb1_16_3_2 + rb1_16_3_3 + a3c1_16_3_1_0
   + a3c1_16_3_1_1 + a3c1_16_3_1_2 = 1
 R3137: rb1_16_4_0 + rb1_16_4_1 + rb1_16_4_2 + rb1_16_4_3 + a3c1_16_4_1_0
   + a3c1_16_4_1_1 + a3c1_16_4_1_2 = 1
 R3138: rb1_16_5_0 + rb1_16_5_1 + rb1_16_5_2 + rb1_16_5_3 + a3c1_16_5_1_0
   + a3c1_16_5_1_1 + a3c1_16_5_1_2 = 1
 R3139: rb1_16_6_0 + rb1_16_6_1 + rb1_16_6_2 + rb1_16_6_3 + a3c1_16_6_1_0
   + a3c1_16_6_1_1 + a3c1_16_6_1_2 = 1
 R3140: med4a1_16_0 + med4a1_16_1 + med4a1_16_2 - medcol1_16 = 0
 R3141: rb1_17_0_0 + rb1_17_1_0 + rb1_17_2_0 + rb1_17_3_0 + rb1_17_4_0
   + rb1_17_5_0 + rb1_17_6_0 + rb1_17_7_0 + rb1_17_8_0 = 1
 R3142: a4c1_17_0_1_0 + a4c1_17_1_1_0 + a4c1_17_2_1_0 + a4c1_17_3_1_0
   + a4c1_17_4_1_0 + a4c1_17_5_1_0 + a4c1_17_6_1_0 + a4c1_17_7_1_0
   + a4c1_17_8_1_0 = 1
 R3143: a4c1_17_0_1_1 + a4c1_17_1_1_1 + a4c1_17_2_1_1 + a4c1_17_3_1_1
   + a4c1_17_4_1_1 + a4c1_17_5_1_1 + a4c1_17_6_1_1 + a4c1_17_7_1_1
   + a4c1_17_8_1_1 = 1
 R3144: a4c1_17_0_1_2 + a4c1_17_1_1_2 + a4c1_17_2_1_2 + a4c1_17_3_1_2
   + a4c1_17_4_1_2 + a4c1_17_5_1_2 + a4c1_17_6_1_2 + a4c1_17_7_1_2
   + a4c1_17_8_1_2 = 1
 R3145: a4c1_17_0_1_3 + a4c1_17_1_1_3 + a4c1_17_2_1_3 + a4c1_17_3_1_3
   + a4c1_17_4_1_3 + a4c1_17_5_1_3 + a4c1_17_6_1_3 + a4c1_17_7_1_3
   + a4c1_17_8_1_3 = 1
 R3146: a4c1_17_0_2_0 + a4c1_17_1_2_0 + a4c1_17_2_2_0 + a4c1_17_3_2_0
   + a4c1_17_4_2_0 + a4c1_17_5_2_0 + a4c1_17_6_2_0 + a4c1_17_7_2_0
   + a4c1_17_8_2_0 = 1
 R3147: a4c1_17_0_2_1 + a4c1_17_1_2_1 + a4c1_17_2_2_1 + a4c1_17_3_2_1
   + a4c1_17_4_2_1 + a4c1_17_5_2_1 + a4c1_17_6_2_1 + a4c1_17_7_2_1
   + a4c1_17_8_2_1 = 1
 R3148: a4c1_17_0_2_2 + a4c1_17_1_2_2 + a4c1_17_2_2_2 + a4c1_17_3_2_2
   + a4c1_17_4_2_2 + a4c1_17_5_2_2 + a4c1_17_6_2_2 + a4c1_17_7_2_2
   + a4c1_17_8_2_2 = 1
 R3149: a4c1_17_0_2_3 + a4c1_17_1_2_3 + a4c1_17_2_2_3 + a4c1_17_3_2_3
   + a4c1_17_4_2_3 + a4c1_17_5_2_3 + a4c1_17_6_2_3 + a4c1_17_7_2_3
   + a4c1_17_8_2_3 = 1
 R3150: rb1_17_0_0 + a4c1_17_0_1_0 + a4c1_17_0_1_1 + a4c1_17_0_1_2
   + a4c1_17_0_1_3 + a4c1_17_0_2_0 + a4c1_17_0_2_1 + a4c1_17_0_2_2
   + a4c1_17_0_2_3 = 1
 R3151: rb1_17_1_0 + a4c1_17_1_1_0 + a4c1_17_1_1_1 + a4c1_17_1_1_2
   + a4c1_17_1_1_3 + a4c1_17_1_2_0 + a4c1_17_1_2_1 + a4c1_17_1_2_2
   + a4c1_17_1_2_3 = 1
 R3152: rb1_17_2_0 + a4c1_17_2_1_0 + a4c1_17_2_1_1 + a4c1_17_2_1_2
   + a4c1_17_2_1_3 + a4c1_17_2_2_0 + a4c1_17_2_2_1 + a4c1_17_2_2_2
   + a4c1_17_2_2_3 = 1
 R3153: rb1_17_3_0 + a4c1_17_3_1_0 + a4c1_17_3_1_1 + a4c1_17_3_1_2
   + a4c1_17_3_1_3 + a4c1_17_3_2_0 + a4c1_17_3_2_1 + a4c1_17_3_2_2
   + a4c1_17_3_2_3 = 1
 R3154: rb1_17_4_0 + a4c1_17_4_1_0 + a4c1_17_4_1_1 + a4c1_17_4_1_2
   + a4c1_17_4_1_3 + a4c1_17_4_2_0 + a4c1_17_4_2_1 + a4c1_17_4_2_2
   + a4c1_17_4_2_3 = 1
 R3155: rb1_17_5_0 + a4c1_17_5_1_0 + a4c1_17_5_1_1 + a4c1_17_5_1_2
   + a4c1_17_5_1_3 + a4c1_17_5_2_0 + a4c1_17_5_2_1 + a4c1_17_5_2_2
   + a4c1_17_5_2_3 = 1
 R3156: rb1_17_6_0 + a4c1_17_6_1_0 + a4c1_17_6_1_1 + a4c1_17_6_1_2
   + a4c1_17_6_1_3 + a4c1_17_6_2_0 + a4c1_17_6_2_1 + a4c1_17_6_2_2
   + a4c1_17_6_2_3 = 1
 R3157: rb1_17_7_0 + a4c1_17_7_1_0 + a4c1_17_7_1_1 + a4c1_17_7_1_2
   + a4c1_17_7_1_3 + a4c1_17_7_2_0 + a4c1_17_7_2_1 + a4c1_17_7_2_2
   + a4c1_17_7_2_3 = 1
 R3158: rb1_17_8_0 + a4c1_17_8_1_0 + a4c1_17_8_1_1 + a4c1_17_8_1_2
   + a4c1_17_8_1_3 + a4c1_17_8_2_0 + a4c1_17_8_2_1 + a4c1_17_8_2_2
   + a4c1_17_8_2_3 = 1
 R3159: med4a1_17_0 + med4a1_17_1 + med3a1_17_0 - medcol1_17 = 0
 R3160: a4c1_18_0_1_0 + a4c1_18_1_1_0 + a4c1_18_2_1_0 + a4c1_18_3_1_0
   + a4c1_18_4_1_0 + a4c1_18_5_1_0 + a4c1_18_6_1_0 + a4c1_18_7_1_0 = 1
 R3161: a4c1_18_0_1_1 + a4c1_18_1_1_1 + a4c1_18_2_1_1 + a4c1_18_3_1_1
   + a4c1_18_4_1_1 + a4c1_18_5_1_1 + a4c1_18_6_1_1 + a4c1_18_7_1_1 = 1
 R3162: a4c1_18_0_1_2 + a4c1_18_1_1_2 + a4c1_18_2_1_2 + a4c1_18_3_1_2
   + a4c1_18_4_1_2 + a4c1_18_5_1_2 + a4c1_18_6_1_2 + a4c1_18_7_1_2 = 1
 R3163: a4c1_18_0_1_3 + a4c1_18_1_1_3 + a4c1_18_2_1_3 + a4c1_18_3_1_3
   + a4c1_18_4_1_3 + a4c1_18_5_1_3 + a4c1_18_6_1_3 + a4c1_18_7_1_3 = 1
 R3164: a4c1_18_0_2_0 + a4c1_18_1_2_0 + a4c1_18_2_2_0 + a4c1_18_3_2_0
   + a4c1_18_4_2_0 + a4c1_18_5_2_0 + a4c1_18_6_2_0 + a4c1_18_7_2_0 = 1
 R3165: a4c1_18_0_2_1 + a4c1_18_1_2_1 + a4c1_18_2_2_1 + a4c1_18_3_2_1
   + a4c1_18_4_2_1 + a4c1_18_5_2_1 + a4c1_18_6_2_1 + a4c1_18_7_2_1 = 1
 R3166: a4c1_18_0_2_2 + a4c1_18_1_2_2 + a4c1_18_2_2_2 + a4c1_18_3_2_2
   + a4c1_18_4_2_2 + a4c1_18_5_2_2 + a4c1_18_6_2_2 + a4c1_18_7_2_2 = 1
 R3167: a4c1_18_0_2_3 + a4c1_18_1_2_3 + a4c1_18_2_2_3 + a4c1_18_3_2_3
   + a4c1_18_4_2_3 + a4c1_18_5_2_3 + a4c1_18_6_2_3 + a4c1_18_7_2_3 = 1
 R3168: a4c1_18_0_1_0 + a4c1_18_0_1_1 + a4c1_18_0_1_2 + a4c1_18_0_1_3
   + a4c1_18_0_2_0 + a4c1_18_0_2_1 + a4c1_18_0_2_2 + a4c1_18_0_2_3 = 1
 R3169: a4c1_18_1_1_0 + a4c1_18_1_1_1 + a4c1_18_1_1_2 + a4c1_18_1_1_3
   + a4c1_18_1_2_0 + a4c1_18_1_2_1 + a4c1_18_1_2_2 + a4c1_18_1_2_3 = 1
 R3170: a4c1_18_2_1_0 + a4c1_18_2_1_1 + a4c1_18_2_1_2 + a4c1_18_2_1_3
   + a4c1_18_2_2_0 + a4c1_18_2_2_1 + a4c1_18_2_2_2 + a4c1_18_2_2_3 = 1
 R3171: a4c1_18_3_1_0 + a4c1_18_3_1_1 + a4c1_18_3_1_2 + a4c1_18_3_1_3
   + a4c1_18_3_2_0 + a4c1_18_3_2_1 + a4c1_18_3_2_2 + a4c1_18_3_2_3 = 1
 R3172: a4c1_18_4_1_0 + a4c1_18_4_1_1 + a4c1_18_4_1_2 + a4c1_18_4_1_3
   + a4c1_18_4_2_0 + a4c1_18_4_2_1 + a4c1_18_4_2_2 + a4c1_18_4_2_3 = 1
 R3173: a4c1_18_5_1_0 + a4c1_18_5_1_1 + a4c1_18_5_1_2 + a4c1_18_5_1_3
   + a4c1_18_5_2_0 + a4c1_18_5_2_1 + a4c1_18_5_2_2 + a4c1_18_5_2_3 = 1
 R3174: a4c1_18_6_1_0 + a4c1_18_6_1_1 + a4c1_18_6_1_2 + a4c1_18_6_1_3
   + a4c1_18_6_2_0 + a4c1_18_6_2_1 + a4c1_18_6_2_2 + a4c1_18_6_2_3 = 1
 R3175: a4c1_18_7_1_0 + a4c1_18_7_1_1 + a4c1_18_7_1_2 + a4c1_18_7_1_3
   + a4c1_18_7_2_0 + a4c1_18_7_2_1 + a4c1_18_7_2_2 + a4c1_18_7_2_3 = 1
 R3176: med4a1_18_0 + med4a1_18_1 + med4a1_18_2 + med3a1_18_0 - medcol1_18
   = 0
 R3177: rb1_19_0_0 + rb1_19_1_0 + rb1_19_2_0 + rb1_19_3_0 + rb1_19_4_0
   + rb1_19_5_0 + rb1_19_6_0 + rb1_19_7_0 = 1
 R3178: rb1_19_0_1 + rb1_19_1_1 + rb1_19_2_1 + rb1_19_3_1 + rb1_19_4_1
   + rb1_19_5_1 + rb1_19_6_1 + rb1_19_7_1 = 1
 R3179: rb1_19_0_2 + rb1_19_1_2 + rb1_19_2_2 + rb1_19_3_2 + rb1_19_4_2
   + rb1_19_5_2 + rb1_19_6_2 + rb1_19_7_2 = 1
 R3180: rb1_19_0_3 + rb1_19_1_3 + rb1_19_2_3 + rb1_19_3_3 + rb1_19_4_3
   + rb1_19_5_3 + rb1_19_6_3 + rb1_19_7_3 = 1
 R3181: rb1_19_0_4 + rb1_19_1_4 + rb1_19_2_4 + rb1_19_3_4 + rb1_19_4_4
   + rb1_19_5_4 + rb1_19_6_4 + rb1_19_7_4 = 1
 R3182: f1_19_0_1_0 + f1_19_1_1_0 + f1_19_2_1_0 + f1_19_3_1_0 + f1_19_4_1_0
   + f1_19_5_1_0 + f1_19_6_1_0 + f1_19_7_1_0 = 1
 R3183: f1_19_0_1_1 + f1_19_1_1_1 + f1_19_2_1_1 + f1_19_3_1_1 + f1_19_4_1_1
   + f1_19_5_1_1 + f1_19_6_1_1 + f1_19_7_1_1 = 1
 R3184: f1_19_0_1_2 + f1_19_1_1_2 + f1_19_2_1_2 + f1_19_3_1_2 + f1_19_4_1_2
   + f1_19_5_1_2 + f1_19_6_1_2 + f1_19_7_1_2 = 1
 R3185: rb1_19_0_0 + rb1_19_0_1 + rb1_19_0_2 + rb1_19_0_3 + rb1_19_0_4
   + f1_19_0_1_0 + f1_19_0_1_1 + f1_19_0_1_2 = 1
 R3186: rb1_19_1_0 + rb1_19_1_1 + rb1_19_1_2 + rb1_19_1_3 + rb1_19_1_4
   + f1_19_1_1_0 + f1_19_1_1_1 + f1_19_1_1_2 = 1
 R3187: rb1_19_2_0 + rb1_19_2_1 + rb1_19_2_2 + rb1_19_2_3 + rb1_19_2_4
   + f1_19_2_1_0 + f1_19_2_1_1 + f1_19_2_1_2 = 1
 R3188: rb1_19_3_0 + rb1_19_3_1 + rb1_19_3_2 + rb1_19_3_3 + rb1_19_3_4
   + f1_19_3_1_0 + f1_19_3_1_1 + f1_19_3_1_2 = 1
 R3189: rb1_19_4_0 + rb1_19_4_1 + rb1_19_4_2 + rb1_19_4_3 + rb1_19_4_4
   + f1_19_4_1_0 + f1_19_4_1_1 + f1_19_4_1_2 = 1
 R3190: rb1_19_5_0 + rb1_19_5_1 + rb1_19_5_2 + rb1_19_5_3 + rb1_19_5_4
   + f1_19_5_1_0 + f1_19_5_1_1 + f1_19_5_1_2 = 1
 R3191: rb1_19_6_0 + rb1_19_6_1 + rb1_19_6_2 + rb1_19_6_3 + rb1_19_6_4
   + f1_19_6_1_0 + f1_19_6_1_1 + f1_19_6_1_2 = 1
 R3192: rb1_19_7_0 + rb1_19_7_1 + rb1_19_7_2 + rb1_19_7_3 + rb1_19_7_4
   + f1_19_7_1_0 + f1_19_7_1_1 + f1_19_7_1_2 = 1
 R3193: med4a1_19_0 + med4a1_19_1 + med4a1_19_2 + med4a1_19_3 - medcol1_19
   = 0
 R3194: rb1_20_0_0 + rb1_20_1_0 + rb1_20_2_0 + rb1_20_3_0 + rb1_20_4_0
   + rb1_20_5_0 + rb1_20_6_0 + rb1_20_7_0 + rb1_20_8_0 = 1
 R3195: rb1_20_0_1 + rb1_20_1_1 + rb1_20_2_1 + rb1_20_3_1 + rb1_20_4_1
   + rb1_20_5_1 + rb1_20_6_1 + rb1_20_7_1 + rb1_20_8_1 = 1
 R3196: rb1_20_0_2 + rb1_20_1_2 + rb1_20_2_2 + rb1_20_3_2 + rb1_20_4_2
   + rb1_20_5_2 + rb1_20_6_2 + rb1_20_7_2 + rb1_20_8_2 = 1
 R3197: a3c1_20_0_1_0 + a3c1_20_1_1_0 + a3c1_20_2_1_0 + a3c1_20_3_1_0
   + a3c1_20_4_1_0 + a3c1_20_5_1_0 + a3c1_20_6_1_0 + a3c1_20_7_1_0
   + a3c1_20_8_1_0 = 1
 R3198: a3c1_20_0_1_1 + a3c1_20_1_1_1 + a3c1_20_2_1_1 + a3c1_20_3_1_1
   + a3c1_20_4_1_1 + a3c1_20_5_1_1 + a3c1_20_6_1_1 + a3c1_20_7_1_1
   + a3c1_20_8_1_1 = 1
 R3199: a3c1_20_0_1_2 + a3c1_20_1_1_2 + a3c1_20_2_1_2 + a3c1_20_3_1_2
   + a3c1_20_4_1_2 + a3c1_20_5_1_2 + a3c1_20_6_1_2 + a3c1_20_7_1_2
   + a3c1_20_8_1_2 = 1
 R3200: a3c1_20_0_2_0 + a3c1_20_1_2_0 + a3c1_20_2_2_0 + a3c1_20_3_2_0
   + a3c1_20_4_2_0 + a3c1_20_5_2_0 + a3c1_20_6_2_0 + a3c1_20_7_2_0
   + a3c1_20_8_2_0 = 1
 R3201: a3c1_20_0_2_1 + a3c1_20_1_2_1 + a3c1_20_2_2_1 + a3c1_20_3_2_1
   + a3c1_20_4_2_1 + a3c1_20_5_2_1 + a3c1_20_6_2_1 + a3c1_20_7_2_1
   + a3c1_20_8_2_1 = 1
 R3202: a3c1_20_0_2_2 + a3c1_20_1_2_2 + a3c1_20_2_2_2 + a3c1_20_3_2_2
   + a3c1_20_4_2_2 + a3c1_20_5_2_2 + a3c1_20_6_2_2 + a3c1_20_7_2_2
   + a3c1_20_8_2_2 = 1
 R3203: rb1_20_0_0 + rb1_20_0_1 + rb1_20_0_2 + a3c1_20_0_1_0
   + a3c1_20_0_1_1 + a3c1_20_0_1_2 + a3c1_20_0_2_0 + a3c1_20_0_2_1
   + a3c1_20_0_2_2 = 1
 R3204: rb1_20_1_0 + rb1_20_1_1 + rb1_20_1_2 + a3c1_20_1_1_0
   + a3c1_20_1_1_1 + a3c1_20_1_1_2 + a3c1_20_1_2_0 + a3c1_20_1_2_1
   + a3c1_20_1_2_2 = 1
 R3205: rb1_20_2_0 + rb1_20_2_1 + rb1_20_2_2 + a3c1_20_2_1_0
   + a3c1_20_2_1_1 + a3c1_20_2_1_2 + a3c1_20_2_2_0 + a3c1_20_2_2_1
   + a3c1_20_2_2_2 = 1
 R3206: rb1_20_3_0 + rb1_20_3_1 + rb1_20_3_2 + a3c1_20_3_1_0
   + a3c1_20_3_1_1 + a3c1_20_3_1_2 + a3c1_20_3_2_0 + a3c1_20_3_2_1
   + a3c1_20_3_2_2 = 1
 R3207: rb1_20_4_0 + rb1_20_4_1 + rb1_20_4_2 + a3c1_20_4_1_0
   + a3c1_20_4_1_1 + a3c1_20_4_1_2 + a3c1_20_4_2_0 + a3c1_20_4_2_1
   + a3c1_20_4_2_2 = 1
 R3208: rb1_20_5_0 + rb1_20_5_1 + rb1_20_5_2 + a3c1_20_5_1_0
   + a3c1_20_5_1_1 + a3c1_20_5_1_2 + a3c1_20_5_2_0 + a3c1_20_5_2_1
   + a3c1_20_5_2_2 = 1
 R3209: rb1_20_6_0 + rb1_20_6_1 + rb1_20_6_2 + a3c1_20_6_1_0
   + a3c1_20_6_1_1 + a3c1_20_6_1_2 + a3c1_20_6_2_0 + a3c1_20_6_2_1
   + a3c1_20_6_2_2 = 1
 R3210: rb1_20_7_0 + rb1_20_7_1 + rb1_20_7_2 + a3c1_20_7_1_0
   + a3c1_20_7_1_1 + a3c1_20_7_1_2 + a3c1_20_7_2_0 + a3c1_20_7_2_1
   + a3c1_20_7_2_2 = 1
 R3211: rb1_20_8_0 + rb1_20_8_1 + rb1_20_8_2 + a3c1_20_8_1_0
   + a3c1_20_8_1_1 + a3c1_20_8_1_2 + a3c1_20_8_2_0 + a3c1_20_8_2_1
   + a3c1_20_8_2_2 = 1
 R3212: med4a1_20_0 + med4a1_20_1 + med4a1_20_2 - medcol1_20 = 0
 R3213: rb1_21_0_0 + rb1_21_1_0 + rb1_21_2_0 + rb1_21_3_0 + rb1_21_4_0
   + rb1_21_5_0 + rb1_21_6_0 + rb1_21_7_0 = 1
 R3214: rb1_21_0_1 + rb1_21_1_1 + rb1_21_2_1 + rb1_21_3_1 + rb1_21_4_1
   + rb1_21_5_1 + rb1_21_6_1 + rb1_21_7_1 = 1
 R3215: rb1_21_0_2 + rb1_21_1_2 + rb1_21_2_2 + rb1_21_3_2 + rb1_21_4_2
   + rb1_21_5_2 + rb1_21_6_2 + rb1_21_7_2 = 1
 R3216: rb1_21_0_3 + rb1_21_1_3 + rb1_21_2_3 + rb1_21_3_3 + rb1_21_4_3
   + rb1_21_5_3 + rb1_21_6_3 + rb1_21_7_3 = 1
 R3217: rb1_21_0_4 + rb1_21_1_4 + rb1_21_2_4 + rb1_21_3_4 + rb1_21_4_4
   + rb1_21_5_4 + rb1_21_6_4 + rb1_21_7_4 = 1
 R3218: rb1_21_0_5 + rb1_21_1_5 + rb1_21_2_5 + rb1_21_3_5 + rb1_21_4_5
   + rb1_21_5_5 + rb1_21_6_5 + rb1_21_7_5 = 1
 R3219: rb1_21_0_6 + rb1_21_1_6 + rb1_21_2_6 + rb1_21_3_6 + rb1_21_4_6
   + rb1_21_5_6 + rb1_21_6_6 + rb1_21_7_6 = 1
 R3220: rb1_21_0_7 + rb1_21_1_7 + rb1_21_2_7 + rb1_21_3_7 + rb1_21_4_7
   + rb1_21_5_7 + rb1_21_6_7 + rb1_21_7_7 = 1
 R3221: rb1_21_0_0 + rb1_21_0_1 + rb1_21_0_2 + rb1_21_0_3 + rb1_21_0_4
   + rb1_21_0_5 + rb1_21_0_6 + rb1_21_0_7 = 1
 R3222: rb1_21_1_0 + rb1_21_1_1 + rb1_21_1_2 + rb1_21_1_3 + rb1_21_1_4
   + rb1_21_1_5 + rb1_21_1_6 + rb1_21_1_7 = 1
 R3223: rb1_21_2_0 + rb1_21_2_1 + rb1_21_2_2 + rb1_21_2_3 + rb1_21_2_4
   + rb1_21_2_5 + rb1_21_2_6 + rb1_21_2_7 = 1
 R3224: rb1_21_3_0 + rb1_21_3_1 + rb1_21_3_2 + rb1_21_3_3 + rb1_21_3_4
   + rb1_21_3_5 + rb1_21_3_6 + rb1_21_3_7 = 1
 R3225: rb1_21_4_0 + rb1_21_4_1 + rb1_21_4_2 + rb1_21_4_3 + rb1_21_4_4
   + rb1_21_4_5 + rb1_21_4_6 + rb1_21_4_7 = 1
 R3226: rb1_21_5_0 + rb1_21_5_1 + rb1_21_5_2 + rb1_21_5_3 + rb1_21_5_4
   + rb1_21_5_5 + rb1_21_5_6 + rb1_21_5_7 = 1
 R3227: rb1_21_6_0 + rb1_21_6_1 + rb1_21_6_2 + rb1_21_6_3 + rb1_21_6_4
   + rb1_21_6_5 + rb1_21_6_6 + rb1_21_6_7 = 1
 R3228: rb1_21_7_0 + rb1_21_7_1 + rb1_21_7_2 + rb1_21_7_3 + rb1_21_7_4
   + rb1_21_7_5 + rb1_21_7_6 + rb1_21_7_7 = 1
 R3229: med4a1_21_0 + med4a1_21_1 + med4a1_21_2 - medcol1_21 = 0
 R3230: a4c1_22_0_1_0 + a4c1_22_1_1_0 + a4c1_22_2_1_0 + a4c1_22_3_1_0
   + a4c1_22_4_1_0 + a4c1_22_5_1_0 + a4c1_22_6_1_0 = 1
 R3231: a4c1_22_0_1_1 + a4c1_22_1_1_1 + a4c1_22_2_1_1 + a4c1_22_3_1_1
   + a4c1_22_4_1_1 + a4c1_22_5_1_1 + a4c1_22_6_1_1 = 1
 R3232: a4c1_22_0_1_2 + a4c1_22_1_1_2 + a4c1_22_2_1_2 + a4c1_22_3_1_2
   + a4c1_22_4_1_2 + a4c1_22_5_1_2 + a4c1_22_6_1_2 = 1
 R3233: a4c1_22_0_1_3 + a4c1_22_1_1_3 + a4c1_22_2_1_3 + a4c1_22_3_1_3
   + a4c1_22_4_1_3 + a4c1_22_5_1_3 + a4c1_22_6_1_3 = 1
 R3234: a3c1_22_0_1_0 + a3c1_22_1_1_0 + a3c1_22_2_1_0 + a3c1_22_3_1_0
   + a3c1_22_4_1_0 + a3c1_22_5_1_0 + a3c1_22_6_1_0 = 1
 R3235: a3c1_22_0_1_1 + a3c1_22_1_1_1 + a3c1_22_2_1_1 + a3c1_22_3_1_1
   + a3c1_22_4_1_1 + a3c1_22_5_1_1 + a3c1_22_6_1_1 = 1
 R3236: a3c1_22_0_1_2 + a3c1_22_1_1_2 + a3c1_22_2_1_2 + a3c1_22_3_1_2
   + a3c1_22_4_1_2 + a3c1_22_5_1_2 + a3c1_22_6_1_2 = 1
 R3237: a4c1_22_0_1_0 + a4c1_22_0_1_1 + a4c1_22_0_1_2 + a4c1_22_0_1_3
   + a3c1_22_0_1_0 + a3c1_22_0_1_1 + a3c1_22_0_1_2 = 1
 R3238: a4c1_22_1_1_0 + a4c1_22_1_1_1 + a4c1_22_1_1_2 + a4c1_22_1_1_3
   + a3c1_22_1_1_0 + a3c1_22_1_1_1 + a3c1_22_1_1_2 = 1
 R3239: a4c1_22_2_1_0 + a4c1_22_2_1_1 + a4c1_22_2_1_2 + a4c1_22_2_1_3
   + a3c1_22_2_1_0 + a3c1_22_2_1_1 + a3c1_22_2_1_2 = 1
 R3240: a4c1_22_3_1_0 + a4c1_22_3_1_1 + a4c1_22_3_1_2 + a4c1_22_3_1_3
   + a3c1_22_3_1_0 + a3c1_22_3_1_1 + a3c1_22_3_1_2 = 1
 R3241: a4c1_22_4_1_0 + a4c1_22_4_1_1 + a4c1_22_4_1_2 + a4c1_22_4_1_3
   + a3c1_22_4_1_0 + a3c1_22_4_1_1 + a3c1_22_4_1_2 = 1
 R3242: a4c1_22_5_1_0 + a4c1_22_5_1_1 + a4c1_22_5_1_2 + a4c1_22_5_1_3
   + a3c1_22_5_1_0 + a3c1_22_5_1_1 + a3c1_22_5_1_2 = 1
 R3243: a4c1_22_6_1_0 + a4c1_22_6_1_1 + a4c1_22_6_1_2 + a4c1_22_6_1_3
   + a3c1_22_6_1_0 + a3c1_22_6_1_1 + a3c1_22_6_1_2 = 1
 R3244: med4a1_22_0 + med4a1_22_1 + med4a1_22_2 - medcol1_22 = 0
 R3245: rb1_23_0_0 + rb1_23_1_0 + rb1_23_2_0 + rb1_23_3_0 + rb1_23_4_0
   + rb1_23_5_0 + rb1_23_6_0 = 1
 R3246: rb1_23_0_1 + rb1_23_1_1 + rb1_23_2_1 + rb1_23_3_1 + rb1_23_4_1
   + rb1_23_5_1 + rb1_23_6_1 = 1
 R3247: rb1_23_0_2 + rb1_23_1_2 + rb1_23_2_2 + rb1_23_3_2 + rb1_23_4_2
   + rb1_23_5_2 + rb1_23_6_2 = 1
 R3248: a4c1_23_0_1_0 + a4c1_23_1_1_0 + a4c1_23_2_1_0 + a4c1_23_3_1_0
   + a4c1_23_4_1_0 + a4c1_23_5_1_0 + a4c1_23_6_1_0 = 1
 R3249: a4c1_23_0_1_1 + a4c1_23_1_1_1 + a4c1_23_2_1_1 + a4c1_23_3_1_1
   + a4c1_23_4_1_1 + a4c1_23_5_1_1 + a4c1_23_6_1_1 = 1
 R3250: a4c1_23_0_1_2 + a4c1_23_1_1_2 + a4c1_23_2_1_2 + a4c1_23_3_1_2
   + a4c1_23_4_1_2 + a4c1_23_5_1_2 + a4c1_23_6_1_2 = 1
 R3251: a4c1_23_0_1_3 + a4c1_23_1_1_3 + a4c1_23_2_1_3 + a4c1_23_3_1_3
   + a4c1_23_4_1_3 + a4c1_23_5_1_3 + a4c1_23_6_1_3 = 1
 R3252: rb1_23_0_0 + rb1_23_0_1 + rb1_23_0_2 + a4c1_23_0_1_0
   + a4c1_23_0_1_1 + a4c1_23_0_1_2 + a4c1_23_0_1_3 = 1
 R3253: rb1_23_1_0 + rb1_23_1_1 + rb1_23_1_2 + a4c1_23_1_1_0
   + a4c1_23_1_1_1 + a4c1_23_1_1_2 + a4c1_23_1_1_3 = 1
 R3254: rb1_23_2_0 + rb1_23_2_1 + rb1_23_2_2 + a4c1_23_2_1_0
   + a4c1_23_2_1_1 + a4c1_23_2_1_2 + a4c1_23_2_1_3 = 1
 R3255: rb1_23_3_0 + rb1_23_3_1 + rb1_23_3_2 + a4c1_23_3_1_0
   + a4c1_23_3_1_1 + a4c1_23_3_1_2 + a4c1_23_3_1_3 = 1
 R3256: rb1_23_4_0 + rb1_23_4_1 + rb1_23_4_2 + a4c1_23_4_1_0
   + a4c1_23_4_1_1 + a4c1_23_4_1_2 + a4c1_23_4_1_3 = 1
 R3257: rb1_23_5_0 + rb1_23_5_1 + rb1_23_5_2 + a4c1_23_5_1_0
   + a4c1_23_5_1_1 + a4c1_23_5_1_2 + a4c1_23_5_1_3 = 1
 R3258: rb1_23_6_0 + rb1_23_6_1 + rb1_23_6_2 + a4c1_23_6_1_0
   + a4c1_23_6_1_1 + a4c1_23_6_1_2 + a4c1_23_6_1_3 = 1
 R3259: med4a1_23_0 + med4a1_23_1 + med3a1_23_0 - medcol1_23 = 0
 R3260: rb1_24_0_0 + rb1_24_1_0 + rb1_24_2_0 + rb1_24_3_0 + rb1_24_4_0
   + rb1_24_5_0 + rb1_24_6_0 + rb1_24_7_0 = 1
 R3261: rb1_24_0_1 + rb1_24_1_1 + rb1_24_2_1 + rb1_24_3_1 + rb1_24_4_1
   + rb1_24_5_1 + rb1_24_6_1 + rb1_24_7_1 = 1
 R3262: rb1_24_0_2 + rb1_24_1_2 + rb1_24_2_2 + rb1_24_3_2 + rb1_24_4_2
   + rb1_24_5_2 + rb1_24_6_2 + rb1_24_7_2 = 1
 R3263: rb1_24_0_3 + rb1_24_1_3 + rb1_24_2_3 + rb1_24_3_3 + rb1_24_4_3
   + rb1_24_5_3 + rb1_24_6_3 + rb1_24_7_3 = 1
 R3264: rb1_24_0_4 + rb1_24_1_4 + rb1_24_2_4 + rb1_24_3_4 + rb1_24_4_4
   + rb1_24_5_4 + rb1_24_6_4 + rb1_24_7_4 = 1
 R3265: rb1_24_0_5 + rb1_24_1_5 + rb1_24_2_5 + rb1_24_3_5 + rb1_24_4_5
   + rb1_24_5_5 + rb1_24_6_5 + rb1_24_7_5 = 1
 R3266: rb1_24_0_6 + rb1_24_1_6 + rb1_24_2_6 + rb1_24_3_6 + rb1_24_4_6
   + rb1_24_5_6 + rb1_24_6_6 + rb1_24_7_6 = 1
 R3267: rb1_24_0_7 + rb1_24_1_7 + rb1_24_2_7 + rb1_24_3_7 + rb1_24_4_7
   + rb1_24_5_7 + rb1_24_6_7 + rb1_24_7_7 = 1
 R3268: rb1_24_0_0 + rb1_24_0_1 + rb1_24_0_2 + rb1_24_0_3 + rb1_24_0_4
   + rb1_24_0_5 + rb1_24_0_6 + rb1_24_0_7 = 1
 R3269: rb1_24_1_0 + rb1_24_1_1 + rb1_24_1_2 + rb1_24_1_3 + rb1_24_1_4
   + rb1_24_1_5 + rb1_24_1_6 + rb1_24_1_7 = 1
 R3270: rb1_24_2_0 + rb1_24_2_1 + rb1_24_2_2 + rb1_24_2_3 + rb1_24_2_4
   + rb1_24_2_5 + rb1_24_2_6 + rb1_24_2_7 = 1
 R3271: rb1_24_3_0 + rb1_24_3_1 + rb1_24_3_2 + rb1_24_3_3 + rb1_24_3_4
   + rb1_24_3_5 + rb1_24_3_6 + rb1_24_3_7 = 1
 R3272: rb1_24_4_0 + rb1_24_4_1 + rb1_24_4_2 + rb1_24_4_3 + rb1_24_4_4
   + rb1_24_4_5 + rb1_24_4_6 + rb1_24_4_7 = 1
 R3273: rb1_24_5_0 + rb1_24_5_1 + rb1_24_5_2 + rb1_24_5_3 + rb1_24_5_4
   + rb1_24_5_5 + rb1_24_5_6 + rb1_24_5_7 = 1
 R3274: rb1_24_6_0 + rb1_24_6_1 + rb1_24_6_2 + rb1_24_6_3 + rb1_24_6_4
   + rb1_24_6_5 + rb1_24_6_6 + rb1_24_6_7 = 1
 R3275: rb1_24_7_0 + rb1_24_7_1 + rb1_24_7_2 + rb1_24_7_3 + rb1_24_7_4
   + rb1_24_7_5 + rb1_24_7_6 + rb1_24_7_7 = 1
 R3276: med3a1_24_0 + med3a1_24_1 + med3a1_24_2 - medcol1_24 = 0
 R3277: rb1_25_0_0 + rb1_25_1_0 + rb1_25_2_0 + rb1_25_3_0 + rb1_25_4_0
   + rb1_25_5_0 + rb1_25_6_0 + rb1_25_7_0 = 1
 R3278: rb1_25_0_1 + rb1_25_1_1 + rb1_25_2_1 + rb1_25_3_1 + rb1_25_4_1
   + rb1_25_5_1 + rb1_25_6_1 + rb1_25_7_1 = 1
 R3279: rb1_25_0_2 + rb1_25_1_2 + rb1_25_2_2 + rb1_25_3_2 + rb1_25_4_2
   + rb1_25_5_2 + rb1_25_6_2 + rb1_25_7_2 = 1
 R3280: rb1_25_0_3 + rb1_25_1_3 + rb1_25_2_3 + rb1_25_3_3 + rb1_25_4_3
   + rb1_25_5_3 + rb1_25_6_3 + rb1_25_7_3 = 1
 R3281: rb1_25_0_4 + rb1_25_1_4 + rb1_25_2_4 + rb1_25_3_4 + rb1_25_4_4
   + rb1_25_5_4 + rb1_25_6_4 + rb1_25_7_4 = 1
 R3282: rb1_25_0_5 + rb1_25_1_5 + rb1_25_2_5 + rb1_25_3_5 + rb1_25_4_5
   + rb1_25_5_5 + rb1_25_6_5 + rb1_25_7_5 = 1
 R3283: rb1_25_0_6 + rb1_25_1_6 + rb1_25_2_6 + rb1_25_3_6 + rb1_25_4_6
   + rb1_25_5_6 + rb1_25_6_6 + rb1_25_7_6 = 1
 R3284: rb1_25_0_7 + rb1_25_1_7 + rb1_25_2_7 + rb1_25_3_7 + rb1_25_4_7
   + rb1_25_5_7 + rb1_25_6_7 + rb1_25_7_7 = 1
 R3285: rb1_25_0_0 + rb1_25_0_1 + rb1_25_0_2 + rb1_25_0_3 + rb1_25_0_4
   + rb1_25_0_5 + rb1_25_0_6 + rb1_25_0_7 = 1
 R3286: rb1_25_1_0 + rb1_25_1_1 + rb1_25_1_2 + rb1_25_1_3 + rb1_25_1_4
   + rb1_25_1_5 + rb1_25_1_6 + rb1_25_1_7 = 1
 R3287: rb1_25_2_0 + rb1_25_2_1 + rb1_25_2_2 + rb1_25_2_3 + rb1_25_2_4
   + rb1_25_2_5 + rb1_25_2_6 + rb1_25_2_7 = 1
 R3288: rb1_25_3_0 + rb1_25_3_1 + rb1_25_3_2 + rb1_25_3_3 + rb1_25_3_4
   + rb1_25_3_5 + rb1_25_3_6 + rb1_25_3_7 = 1
 R3289: rb1_25_4_0 + rb1_25_4_1 + rb1_25_4_2 + rb1_25_4_3 + rb1_25_4_4
   + rb1_25_4_5 + rb1_25_4_6 + rb1_25_4_7 = 1
 R3290: rb1_25_5_0 + rb1_25_5_1 + rb1_25_5_2 + rb1_25_5_3 + rb1_25_5_4
   + rb1_25_5_5 + rb1_25_5_6 + rb1_25_5_7 = 1
 R3291: rb1_25_6_0 + rb1_25_6_1 + rb1_25_6_2 + rb1_25_6_3 + rb1_25_6_4
   + rb1_25_6_5 + rb1_25_6_6 + rb1_25_6_7 = 1
 R3292: rb1_25_7_0 + rb1_25_7_1 + rb1_25_7_2 + rb1_25_7_3 + rb1_25_7_4
   + rb1_25_7_5 + rb1_25_7_6 + rb1_25_7_7 = 1
 R3293: med4a1_25_0 - medcol1_25 = 0
 R3294: rb1_26_0_0 + rb1_26_1_0 + rb1_26_2_0 + rb1_26_3_0 + rb1_26_4_0 = 1
 R3295: a4c1_26_0_1_0 + a4c1_26_1_1_0 + a4c1_26_2_1_0 + a4c1_26_3_1_0
   + a4c1_26_4_1_0 = 1
 R3296: a4c1_26_0_1_1 + a4c1_26_1_1_1 + a4c1_26_2_1_1 + a4c1_26_3_1_1
   + a4c1_26_4_1_1 = 1
 R3297: a4c1_26_0_1_2 + a4c1_26_1_1_2 + a4c1_26_2_1_2 + a4c1_26_3_1_2
   + a4c1_26_4_1_2 = 1
 R3298: a4c1_26_0_1_3 + a4c1_26_1_1_3 + a4c1_26_2_1_3 + a4c1_26_3_1_3
   + a4c1_26_4_1_3 = 1
 R3299: rb1_26_0_0 + a4c1_26_0_1_0 + a4c1_26_0_1_1 + a4c1_26_0_1_2
   + a4c1_26_0_1_3 = 1
 R3300: rb1_26_1_0 + a4c1_26_1_1_0 + a4c1_26_1_1_1 + a4c1_26_1_1_2
   + a4c1_26_1_1_3 = 1
 R3301: rb1_26_2_0 + a4c1_26_2_1_0 + a4c1_26_2_1_1 + a4c1_26_2_1_2
   + a4c1_26_2_1_3 = 1
 R3302: rb1_26_3_0 + a4c1_26_3_1_0 + a4c1_26_3_1_1 + a4c1_26_3_1_2
   + a4c1_26_3_1_3 = 1
 R3303: rb1_26_4_0 + a4c1_26_4_1_0 + a4c1_26_4_1_1 + a4c1_26_4_1_2
   + a4c1_26_4_1_3 = 1
 R3304: med4a1_26_0 + med4a1_26_1 - medcol1_26 = 0
 R3305: rb1_27_0_0 + rb1_27_1_0 + rb1_27_2_0 + rb1_27_3_0 + rb1_27_4_0
   + rb1_27_5_0 = 1
 R3306: rb1_27_0_1 + rb1_27_1_1 + rb1_27_2_1 + rb1_27_3_1 + rb1_27_4_1
   + rb1_27_5_1 = 1
 R3307: rb1_27_0_2 + rb1_27_1_2 + rb1_27_2_2 + rb1_27_3_2 + rb1_27_4_2
   + rb1_27_5_2 = 1
 R3308: a3c1_27_0_1_0 + a3c1_27_1_1_0 + a3c1_27_2_1_0 + a3c1_27_3_1_0
   + a3c1_27_4_1_0 + a3c1_27_5_1_0 = 1
 R3309: a3c1_27_0_1_1 + a3c1_27_1_1_1 + a3c1_27_2_1_1 + a3c1_27_3_1_1
   + a3c1_27_4_1_1 + a3c1_27_5_1_1 = 1
 R3310: a3c1_27_0_1_2 + a3c1_27_1_1_2 + a3c1_27_2_1_2 + a3c1_27_3_1_2
   + a3c1_27_4_1_2 + a3c1_27_5_1_2 = 1
 R3311: rb1_27_0_0 + rb1_27_0_1 + rb1_27_0_2 + a3c1_27_0_1_0
   + a3c1_27_0_1_1 + a3c1_27_0_1_2 = 1
 R3312: rb1_27_1_0 + rb1_27_1_1 + rb1_27_1_2 + a3c1_27_1_1_0
   + a3c1_27_1_1_1 + a3c1_27_1_1_2 = 1
 R3313: rb1_27_2_0 + rb1_27_2_1 + rb1_27_2_2 + a3c1_27_2_1_0
   + a3c1_27_2_1_1 + a3c1_27_2_1_2 = 1
 R3314: rb1_27_3_0 + rb1_27_3_1 + rb1_27_3_2 + a3c1_27_3_1_0
   + a3c1_27_3_1_1 + a3c1_27_3_1_2 = 1
 R3315: rb1_27_4_0 + rb1_27_4_1 + rb1_27_4_2 + a3c1_27_4_1_0
   + a3c1_27_4_1_1 + a3c1_27_4_1_2 = 1
 R3316: rb1_27_5_0 + rb1_27_5_1 + rb1_27_5_2 + a3c1_27_5_1_0
   + a3c1_27_5_1_1 + a3c1_27_5_1_2 = 1
 R3317: med3a1_27_0 + med3a1_27_1 - medcol1_27 = 0
 R3318: rb1_28_0_0 + rb1_28_1_0 + rb1_28_2_0 + rb1_28_3_0 + rb1_28_4_0 = 1
 R3319: rb1_28_0_1 + rb1_28_1_1 + rb1_28_2_1 + rb1_28_3_1 + rb1_28_4_1 = 1
 R3320: a3c1_28_0_1_0 + a3c1_28_1_1_0 + a3c1_28_2_1_0 + a3c1_28_3_1_0
   + a3c1_28_4_1_0 = 1
 R3321: a3c1_28_0_1_1 + a3c1_28_1_1_1 + a3c1_28_2_1_1 + a3c1_28_3_1_1
   + a3c1_28_4_1_1 = 1
 R3322: a3c1_28_0_1_2 + a3c1_28_1_1_2 + a3c1_28_2_1_2 + a3c1_28_3_1_2
   + a3c1_28_4_1_2 = 1
 R3323: rb1_28_0_0 + rb1_28_0_1 + a3c1_28_0_1_0 + a3c1_28_0_1_1
   + a3c1_28_0_1_2 = 1
 R3324: rb1_28_1_0 + rb1_28_1_1 + a3c1_28_1_1_0 + a3c1_28_1_1_1
   + a3c1_28_1_1_2 = 1
 R3325: rb1_28_2_0 + rb1_28_2_1 + a3c1_28_2_1_0 + a3c1_28_2_1_1
   + a3c1_28_2_1_2 = 1
 R3326: rb1_28_3_0 + rb1_28_3_1 + a3c1_28_3_1_0 + a3c1_28_3_1_1
   + a3c1_28_3_1_2 = 1
 R3327: rb1_28_4_0 + rb1_28_4_1 + a3c1_28_4_1_0 + a3c1_28_4_1_1
   + a3c1_28_4_1_2 = 1
 R3328: med3a1_28_0 + med3a1_28_1 - medcol1_28 = 0
 R3329: rb1_29_0_0 + rb1_29_1_0 + rb1_29_2_0 + rb1_29_3_0 + rb1_29_4_0
   + rb1_29_5_0 = 1
 R3330: rb1_29_0_1 + rb1_29_1_1 + rb1_29_2_1 + rb1_29_3_1 + rb1_29_4_1
   + rb1_29_5_1 = 1
 R3331: rb1_29_0_2 + rb1_29_1_2 + rb1_29_2_2 + rb1_29_3_2 + rb1_29_4_2
   + rb1_29_5_2 = 1
 R3332: rb1_29_0_3 + rb1_29_1_3 + rb1_29_2_3 + rb1_29_3_3 + rb1_29_4_3
   + rb1_29_5_3 = 1
 R3333: rb1_29_0_4 + rb1_29_1_4 + rb1_29_2_4 + rb1_29_3_4 + rb1_29_4_4
   + rb1_29_5_4 = 1
 R3334: rb1_29_0_5 + rb1_29_1_5 + rb1_29_2_5 + rb1_29_3_5 + rb1_29_4_5
   + rb1_29_5_5 = 1
 R3335: rb1_29_0_0 + rb1_29_0_1 + rb1_29_0_2 + rb1_29_0_3 + rb1_29_0_4
   + rb1_29_0_5 = 1
 R3336: rb1_29_1_0 + rb1_29_1_1 + rb1_29_1_2 + rb1_29_1_3 + rb1_29_1_4
   + rb1_29_1_5 = 1
 R3337: rb1_29_2_0 + rb1_29_2_1 + rb1_29_2_2 + rb1_29_2_3 + rb1_29_2_4
   + rb1_29_2_5 = 1
 R3338: rb1_29_3_0 + rb1_29_3_1 + rb1_29_3_2 + rb1_29_3_3 + rb1_29_3_4
   + rb1_29_3_5 = 1
 R3339: rb1_29_4_0 + rb1_29_4_1 + rb1_29_4_2 + rb1_29_4_3 + rb1_29_4_4
   + rb1_29_4_5 = 1
 R3340: rb1_29_5_0 + rb1_29_5_1 + rb1_29_5_2 + rb1_29_5_3 + rb1_29_5_4
   + rb1_29_5_5 = 1
 R3341: - medcol1_29 = 0
 R3342: rb1_30_0_0 + rb1_30_1_0 + rb1_30_2_0 + rb1_30_3_0 + rb1_30_4_0 = 1
 R3343: a4c1_30_0_1_0 + a4c1_30_1_1_0 + a4c1_30_2_1_0 + a4c1_30_3_1_0
   + a4c1_30_4_1_0 = 1
 R3344: a4c1_30_0_1_1 + a4c1_30_1_1_1 + a4c1_30_2_1_1 + a4c1_30_3_1_1
   + a4c1_30_4_1_1 = 1
 R3345: a4c1_30_0_1_2 + a4c1_30_1_1_2 + a4c1_30_2_1_2 + a4c1_30_3_1_2
   + a4c1_30_4_1_2 = 1
 R3346: a4c1_30_0_1_3 + a4c1_30_1_1_3 + a4c1_30_2_1_3 + a4c1_30_3_1_3
   + a4c1_30_4_1_3 = 1
 R3347: rb1_30_0_0 + a4c1_30_0_1_0 + a4c1_30_0_1_1 + a4c1_30_0_1_2
   + a4c1_30_0_1_3 = 1
 R3348: rb1_30_1_0 + a4c1_30_1_1_0 + a4c1_30_1_1_1 + a4c1_30_1_1_2
   + a4c1_30_1_1_3 = 1
 R3349: rb1_30_2_0 + a4c1_30_2_1_0 + a4c1_30_2_1_1 + a4c1_30_2_1_2
   + a4c1_30_2_1_3 = 1
 R3350: rb1_30_3_0 + a4c1_30_3_1_0 + a4c1_30_3_1_1 + a4c1_30_3_1_2
   + a4c1_30_3_1_3 = 1
 R3351: rb1_30_4_0 + a4c1_30_4_1_0 + a4c1_30_4_1_1 + a4c1_30_4_1_2
   + a4c1_30_4_1_3 = 1
 R3352: - medcol1_30 = 0
 R3353: rb1_31_0_0 + rb1_31_1_0 + rb1_31_2_0 + rb1_31_3_0 = 1
 R3354: a3c1_31_0_1_0 + a3c1_31_1_1_0 + a3c1_31_2_1_0 + a3c1_31_3_1_0 = 1
 R3355: a3c1_31_0_1_1 + a3c1_31_1_1_1 + a3c1_31_2_1_1 + a3c1_31_3_1_1 = 1
 R3356: a3c1_31_0_1_2 + a3c1_31_1_1_2 + a3c1_31_2_1_2 + a3c1_31_3_1_2 = 1
 R3357: rb1_31_0_0 + a3c1_31_0_1_0 + a3c1_31_0_1_1 + a3c1_31_0_1_2 = 1
 R3358: rb1_31_1_0 + a3c1_31_1_1_0 + a3c1_31_1_1_1 + a3c1_31_1_1_2 = 1
 R3359: rb1_31_2_0 + a3c1_31_2_1_0 + a3c1_31_2_1_1 + a3c1_31_2_1_2 = 1
 R3360: rb1_31_3_0 + a3c1_31_3_1_0 + a3c1_31_3_1_1 + a3c1_31_3_1_2 = 1
 R3361: - medcol1_31 = 0
 R3362: rb1_32_0_0 + rb1_32_1_0 + rb1_32_2_0 = 1
 R3363: rb1_32_0_1 + rb1_32_1_1 + rb1_32_2_1 = 1
 R3364: rb1_32_0_2 + rb1_32_1_2 + rb1_32_2_2 = 1
 R3365: rb1_32_0_0 + rb1_32_0_1 + rb1_32_0_2 = 1
 R3366: rb1_32_1_0 + rb1_32_1_1 + rb1_32_1_2 = 1
 R3367: rb1_32_2_0 + rb1_32_2_1 + rb1_32_2_2 = 1
 R3368: - medcol1_32 = 0
 R3369: rb1_33_0_0 + rb1_33_1_0 = 1
 R3370: rb1_33_0_1 + rb1_33_1_1 = 1
 R3371: rb1_33_0_0 + rb1_33_0_1 = 1
 R3372: rb1_33_1_0 + rb1_33_1_1 = 1
 R3373: - medcol1_33 = 0
 R3374: rb1_34_0_0 = 1
 R3375: rb1_34_0_0 = 1
 R3376: - medcol1_34 = 0
 R3377: - medcol2_0 = 0
 R3378: - medcol2_1 = 0
 R3379: - medcol2_2 = 0
 R3380: - medcol2_3 = 0
 R3381: rb2_4_0_0 = 1
 R3382: rb2_4_0_0 = 1
 R3383: - medcol2_4 = 0
 R3384: f2_5_0_1_0 + f2_5_1_1_0 + f2_5_2_1_0 = 1
 R3385: f2_5_0_1_1 + f2_5_1_1_1 + f2_5_2_1_1 = 1
 R3386: f2_5_0_1_2 + f2_5_1_1_2 + f2_5_2_1_2 = 1
 R3387: f2_5_0_1_0 + f2_5_0_1_1 + f2_5_0_1_2 = 1
 R3388: f2_5_1_1_0 + f2_5_1_1_1 + f2_5_1_1_2 = 1
 R3389: f2_5_2_1_0 + f2_5_2_1_1 + f2_5_2_1_2 = 1
 R3390: - medcol2_5 = 0
 R3391: rb2_6_0_0 = 1
 R3392: rb2_6_0_0 = 1
 R3393: - medcol2_6 = 0
 R3394: f2_7_0_1_0 + f2_7_1_1_0 + f2_7_2_1_0 + f2_7_3_1_0 + f2_7_4_1_0
   + f2_7_5_1_0 = 1
 R3395: f2_7_0_1_1 + f2_7_1_1_1 + f2_7_2_1_1 + f2_7_3_1_1 + f2_7_4_1_1
   + f2_7_5_1_1 = 1
 R3396: f2_7_0_1_2 + f2_7_1_1_2 + f2_7_2_1_2 + f2_7_3_1_2 + f2_7_4_1_2
   + f2_7_5_1_2 = 1
 R3397: f2_7_0_2_0 + f2_7_1_2_0 + f2_7_2_2_0 + f2_7_3_2_0 + f2_7_4_2_0
   + f2_7_5_2_0 = 1
 R3398: f2_7_0_2_1 + f2_7_1_2_1 + f2_7_2_2_1 + f2_7_3_2_1 + f2_7_4_2_1
   + f2_7_5_2_1 = 1
 R3399: f2_7_0_2_2 + f2_7_1_2_2 + f2_7_2_2_2 + f2_7_3_2_2 + f2_7_4_2_2
   + f2_7_5_2_2 = 1
 R3400: f2_7_0_1_0 + f2_7_0_1_1 + f2_7_0_1_2 + f2_7_0_2_0 + f2_7_0_2_1
   + f2_7_0_2_2 = 1
 R3401: f2_7_1_1_0 + f2_7_1_1_1 + f2_7_1_1_2 + f2_7_1_2_0 + f2_7_1_2_1
   + f2_7_1_2_2 = 1
 R3402: f2_7_2_1_0 + f2_7_2_1_1 + f2_7_2_1_2 + f2_7_2_2_0 + f2_7_2_2_1
   + f2_7_2_2_2 = 1
 R3403: f2_7_3_1_0 + f2_7_3_1_1 + f2_7_3_1_2 + f2_7_3_2_0 + f2_7_3_2_1
   + f2_7_3_2_2 = 1
 R3404: f2_7_4_1_0 + f2_7_4_1_1 + f2_7_4_1_2 + f2_7_4_2_0 + f2_7_4_2_1
   + f2_7_4_2_2 = 1
 R3405: f2_7_5_1_0 + f2_7_5_1_1 + f2_7_5_1_2 + f2_7_5_2_0 + f2_7_5_2_1
   + f2_7_5_2_2 = 1
 R3406: - medcol2_7 = 0
 R3407: rb2_8_0_0 + rb2_8_1_0 + rb2_8_2_0 + rb2_8_3_0 = 1
 R3408: f2_8_0_1_0 + f2_8_1_1_0 + f2_8_2_1_0 + f2_8_3_1_0 = 1
 R3409: f2_8_0_1_1 + f2_8_1_1_1 + f2_8_2_1_1 + f2_8_3_1_1 = 1
 R3410: f2_8_0_1_2 + f2_8_1_1_2 + f2_8_2_1_2 + f2_8_3_1_2 = 1
 R3411: rb2_8_0_0 + f2_8_0_1_0 + f2_8_0_1_1 + f2_8_0_1_2 = 1
 R3412: rb2_8_1_0 + f2_8_1_1_0 + f2_8_1_1_1 + f2_8_1_1_2 = 1
 R3413: rb2_8_2_0 + f2_8_2_1_0 + f2_8_2_1_1 + f2_8_2_1_2 = 1
 R3414: rb2_8_3_0 + f2_8_3_1_0 + f2_8_3_1_1 + f2_8_3_1_2 = 1
 R3415: - medcol2_8 = 0
 R3416: rb2_9_0_0 + rb2_9_1_0 + rb2_9_2_0 + rb2_9_3_0 = 1
 R3417: f2_9_0_1_0 + f2_9_1_1_0 + f2_9_2_1_0 + f2_9_3_1_0 = 1
 R3418: f2_9_0_1_1 + f2_9_1_1_1 + f2_9_2_1_1 + f2_9_3_1_1 = 1
 R3419: f2_9_0_1_2 + f2_9_1_1_2 + f2_9_2_1_2 + f2_9_3_1_2 = 1
 R3420: rb2_9_0_0 + f2_9_0_1_0 + f2_9_0_1_1 + f2_9_0_1_2 = 1
 R3421: rb2_9_1_0 + f2_9_1_1_0 + f2_9_1_1_1 + f2_9_1_1_2 = 1
 R3422: rb2_9_2_0 + f2_9_2_1_0 + f2_9_2_1_1 + f2_9_2_1_2 = 1
 R3423: rb2_9_3_0 + f2_9_3_1_0 + f2_9_3_1_1 + f2_9_3_1_2 = 1
 R3424: - medcol2_9 = 0
 R3425: rb2_10_0_0 + rb2_10_1_0 + rb2_10_2_0 + rb2_10_3_0 = 1
 R3426: f2_10_0_1_0 + f2_10_1_1_0 + f2_10_2_1_0 + f2_10_3_1_0 = 1
 R3427: f2_10_0_1_1 + f2_10_1_1_1 + f2_10_2_1_1 + f2_10_3_1_1 = 1
 R3428: f2_10_0_1_2 + f2_10_1_1_2 + f2_10_2_1_2 + f2_10_3_1_2 = 1
 R3429: rb2_10_0_0 + f2_10_0_1_0 + f2_10_0_1_1 + f2_10_0_1_2 = 1
 R3430: rb2_10_1_0 + f2_10_1_1_0 + f2_10_1_1_1 + f2_10_1_1_2 = 1
 R3431: rb2_10_2_0 + f2_10_2_1_0 + f2_10_2_1_1 + f2_10_2_1_2 = 1
 R3432: rb2_10_3_0 + f2_10_3_1_0 + f2_10_3_1_1 + f2_10_3_1_2 = 1
 R3433: - medcol2_10 = 0
 R3434: rb2_11_0_0 + rb2_11_1_0 + rb2_11_2_0 + rb2_11_3_0 = 1
 R3435: f2_11_0_1_0 + f2_11_1_1_0 + f2_11_2_1_0 + f2_11_3_1_0 = 1
 R3436: f2_11_0_1_1 + f2_11_1_1_1 + f2_11_2_1_1 + f2_11_3_1_1 = 1
 R3437: f2_11_0_1_2 + f2_11_1_1_2 + f2_11_2_1_2 + f2_11_3_1_2 = 1
 R3438: rb2_11_0_0 + f2_11_0_1_0 + f2_11_0_1_1 + f2_11_0_1_2 = 1
 R3439: rb2_11_1_0 + f2_11_1_1_0 + f2_11_1_1_1 + f2_11_1_1_2 = 1
 R3440: rb2_11_2_0 + f2_11_2_1_0 + f2_11_2_1_1 + f2_11_2_1_2 = 1
 R3441: rb2_11_3_0 + f2_11_3_1_0 + f2_11_3_1_1 + f2_11_3_1_2 = 1
 R3442: - medcol2_11 = 0
 R3443: rb2_12_0_0 + rb2_12_1_0 + rb2_12_2_0 + rb2_12_3_0 = 1
 R3444: f2_12_0_1_0 + f2_12_1_1_0 + f2_12_2_1_0 + f2_12_3_1_0 = 1
 R3445: f2_12_0_1_1 + f2_12_1_1_1 + f2_12_2_1_1 + f2_12_3_1_1 = 1
 R3446: f2_12_0_1_2 + f2_12_1_1_2 + f2_12_2_1_2 + f2_12_3_1_2 = 1
 R3447: rb2_12_0_0 + f2_12_0_1_0 + f2_12_0_1_1 + f2_12_0_1_2 = 1
 R3448: rb2_12_1_0 + f2_12_1_1_0 + f2_12_1_1_1 + f2_12_1_1_2 = 1
 R3449: rb2_12_2_0 + f2_12_2_1_0 + f2_12_2_1_1 + f2_12_2_1_2 = 1
 R3450: rb2_12_3_0 + f2_12_3_1_0 + f2_12_3_1_1 + f2_12_3_1_2 = 1
 R3451: - medcol2_12 = 0
 R3452: a3c2_13_0_1_0 + a3c2_13_1_1_0 + a3c2_13_2_1_0 + a3c2_13_3_1_0
   + a3c2_13_4_1_0 + a3c2_13_5_1_0 = 1
 R3453: a3c2_13_0_1_1 + a3c2_13_1_1_1 + a3c2_13_2_1_1 + a3c2_13_3_1_1
   + a3c2_13_4_1_1 + a3c2_13_5_1_1 = 1
 R3454: a3c2_13_0_1_2 + a3c2_13_1_1_2 + a3c2_13_2_1_2 + a3c2_13_3_1_2
   + a3c2_13_4_1_2 + a3c2_13_5_1_2 = 1
 R3455: f2_13_0_1_0 + f2_13_1_1_0 + f2_13_2_1_0 + f2_13_3_1_0 + f2_13_4_1_0
   + f2_13_5_1_0 = 1
 R3456: f2_13_0_1_1 + f2_13_1_1_1 + f2_13_2_1_1 + f2_13_3_1_1 + f2_13_4_1_1
   + f2_13_5_1_1 = 1
 R3457: f2_13_0_1_2 + f2_13_1_1_2 + f2_13_2_1_2 + f2_13_3_1_2 + f2_13_4_1_2
   + f2_13_5_1_2 = 1
 R3458: a3c2_13_0_1_0 + a3c2_13_0_1_1 + a3c2_13_0_1_2 + f2_13_0_1_0
   + f2_13_0_1_1 + f2_13_0_1_2 = 1
 R3459: a3c2_13_1_1_0 + a3c2_13_1_1_1 + a3c2_13_1_1_2 + f2_13_1_1_0
   + f2_13_1_1_1 + f2_13_1_1_2 = 1
 R3460: a3c2_13_2_1_0 + a3c2_13_2_1_1 + a3c2_13_2_1_2 + f2_13_2_1_0
   + f2_13_2_1_1 + f2_13_2_1_2 = 1
 R3461: a3c2_13_3_1_0 + a3c2_13_3_1_1 + a3c2_13_3_1_2 + f2_13_3_1_0
   + f2_13_3_1_1 + f2_13_3_1_2 = 1
 R3462: a3c2_13_4_1_0 + a3c2_13_4_1_1 + a3c2_13_4_1_2 + f2_13_4_1_0
   + f2_13_4_1_1 + f2_13_4_1_2 = 1
 R3463: a3c2_13_5_1_0 + a3c2_13_5_1_1 + a3c2_13_5_1_2 + f2_13_5_1_0
   + f2_13_5_1_1 + f2_13_5_1_2 = 1
 R3464: - medcol2_13 = 0
 R3465: rb2_14_0_0 + rb2_14_1_0 + rb2_14_2_0 + rb2_14_3_0 = 1
 R3466: rb2_14_0_1 + rb2_14_1_1 + rb2_14_2_1 + rb2_14_3_1 = 1
 R3467: rb2_14_0_2 + rb2_14_1_2 + rb2_14_2_2 + rb2_14_3_2 = 1
 R3468: rb2_14_0_3 + rb2_14_1_3 + rb2_14_2_3 + rb2_14_3_3 = 1
 R3469: rb2_14_0_0 + rb2_14_0_1 + rb2_14_0_2 + rb2_14_0_3 = 1
 R3470: rb2_14_1_0 + rb2_14_1_1 + rb2_14_1_2 + rb2_14_1_3 = 1
 R3471: rb2_14_2_0 + rb2_14_2_1 + rb2_14_2_2 + rb2_14_2_3 = 1
 R3472: rb2_14_3_0 + rb2_14_3_1 + rb2_14_3_2 + rb2_14_3_3 = 1
 R3473: - medcol2_14 = 0
 R3474: rb2_15_0_0 + rb2_15_1_0 = 1
 R3475: rb2_15_0_1 + rb2_15_1_1 = 1
 R3476: rb2_15_0_0 + rb2_15_0_1 = 1
 R3477: rb2_15_1_0 + rb2_15_1_1 = 1
 R3478: - medcol2_15 = 0
 R3479: a3c2_16_0_1_0 + a3c2_16_1_1_0 + a3c2_16_2_1_0 + a3c2_16_3_1_0
   + a3c2_16_4_1_0 + a3c2_16_5_1_0 = 1
 R3480: a3c2_16_0_1_1 + a3c2_16_1_1_1 + a3c2_16_2_1_1 + a3c2_16_3_1_1
   + a3c2_16_4_1_1 + a3c2_16_5_1_1 = 1
 R3481: a3c2_16_0_1_2 + a3c2_16_1_1_2 + a3c2_16_2_1_2 + a3c2_16_3_1_2
   + a3c2_16_4_1_2 + a3c2_16_5_1_2 = 1
 R3482: a3c2_16_0_2_0 + a3c2_16_1_2_0 + a3c2_16_2_2_0 + a3c2_16_3_2_0
   + a3c2_16_4_2_0 + a3c2_16_5_2_0 = 1
 R3483: a3c2_16_0_2_1 + a3c2_16_1_2_1 + a3c2_16_2_2_1 + a3c2_16_3_2_1
   + a3c2_16_4_2_1 + a3c2_16_5_2_1 = 1
 R3484: a3c2_16_0_2_2 + a3c2_16_1_2_2 + a3c2_16_2_2_2 + a3c2_16_3_2_2
   + a3c2_16_4_2_2 + a3c2_16_5_2_2 = 1
 R3485: a3c2_16_0_1_0 + a3c2_16_0_1_1 + a3c2_16_0_1_2 + a3c2_16_0_2_0
   + a3c2_16_0_2_1 + a3c2_16_0_2_2 = 1
 R3486: a3c2_16_1_1_0 + a3c2_16_1_1_1 + a3c2_16_1_1_2 + a3c2_16_1_2_0
   + a3c2_16_1_2_1 + a3c2_16_1_2_2 = 1
 R3487: a3c2_16_2_1_0 + a3c2_16_2_1_1 + a3c2_16_2_1_2 + a3c2_16_2_2_0
   + a3c2_16_2_2_1 + a3c2_16_2_2_2 = 1
 R3488: a3c2_16_3_1_0 + a3c2_16_3_1_1 + a3c2_16_3_1_2 + a3c2_16_3_2_0
   + a3c2_16_3_2_1 + a3c2_16_3_2_2 = 1
 R3489: a3c2_16_4_1_0 + a3c2_16_4_1_1 + a3c2_16_4_1_2 + a3c2_16_4_2_0
   + a3c2_16_4_2_1 + a3c2_16_4_2_2 = 1
 R3490: a3c2_16_5_1_0 + a3c2_16_5_1_1 + a3c2_16_5_1_2 + a3c2_16_5_2_0
   + a3c2_16_5_2_1 + a3c2_16_5_2_2 = 1
 R3491: med3a2_16_0 - medcol2_16 = 0
 R3492: rb2_17_0_0 + rb2_17_1_0 + rb2_17_2_0 + rb2_17_3_0 + rb2_17_4_0 = 1
 R3493: a4c2_17_0_1_0 + a4c2_17_1_1_0 + a4c2_17_2_1_0 + a4c2_17_3_1_0
   + a4c2_17_4_1_0 = 1
 R3494: a4c2_17_0_1_1 + a4c2_17_1_1_1 + a4c2_17_2_1_1 + a4c2_17_3_1_1
   + a4c2_17_4_1_1 = 1
 R3495: a4c2_17_0_1_2 + a4c2_17_1_1_2 + a4c2_17_2_1_2 + a4c2_17_3_1_2
   + a4c2_17_4_1_2 = 1
 R3496: a4c2_17_0_1_3 + a4c2_17_1_1_3 + a4c2_17_2_1_3 + a4c2_17_3_1_3
   + a4c2_17_4_1_3 = 1
 R3497: rb2_17_0_0 + a4c2_17_0_1_0 + a4c2_17_0_1_1 + a4c2_17_0_1_2
   + a4c2_17_0_1_3 = 1
 R3498: rb2_17_1_0 + a4c2_17_1_1_0 + a4c2_17_1_1_1 + a4c2_17_1_1_2
   + a4c2_17_1_1_3 = 1
 R3499: rb2_17_2_0 + a4c2_17_2_1_0 + a4c2_17_2_1_1 + a4c2_17_2_1_2
   + a4c2_17_2_1_3 = 1
 R3500: rb2_17_3_0 + a4c2_17_3_1_0 + a4c2_17_3_1_1 + a4c2_17_3_1_2
   + a4c2_17_3_1_3 = 1
 R3501: rb2_17_4_0 + a4c2_17_4_1_0 + a4c2_17_4_1_1 + a4c2_17_4_1_2
   + a4c2_17_4_1_3 = 1
 R3502: med4a2_17_0 + med4a2_17_1 - medcol2_17 = 0
 R3503: rb2_18_0_0 + rb2_18_1_0 + rb2_18_2_0 + rb2_18_3_0 + rb2_18_4_0 = 1
 R3504: a4c2_18_0_1_0 + a4c2_18_1_1_0 + a4c2_18_2_1_0 + a4c2_18_3_1_0
   + a4c2_18_4_1_0 = 1
 R3505: a4c2_18_0_1_1 + a4c2_18_1_1_1 + a4c2_18_2_1_1 + a4c2_18_3_1_1
   + a4c2_18_4_1_1 = 1
 R3506: a4c2_18_0_1_2 + a4c2_18_1_1_2 + a4c2_18_2_1_2 + a4c2_18_3_1_2
   + a4c2_18_4_1_2 = 1
 R3507: a4c2_18_0_1_3 + a4c2_18_1_1_3 + a4c2_18_2_1_3 + a4c2_18_3_1_3
   + a4c2_18_4_1_3 = 1
 R3508: rb2_18_0_0 + a4c2_18_0_1_0 + a4c2_18_0_1_1 + a4c2_18_0_1_2
   + a4c2_18_0_1_3 = 1
 R3509: rb2_18_1_0 + a4c2_18_1_1_0 + a4c2_18_1_1_1 + a4c2_18_1_1_2
   + a4c2_18_1_1_3 = 1
 R3510: rb2_18_2_0 + a4c2_18_2_1_0 + a4c2_18_2_1_1 + a4c2_18_2_1_2
   + a4c2_18_2_1_3 = 1
 R3511: rb2_18_3_0 + a4c2_18_3_1_0 + a4c2_18_3_1_1 + a4c2_18_3_1_2
   + a4c2_18_3_1_3 = 1
 R3512: rb2_18_4_0 + a4c2_18_4_1_0 + a4c2_18_4_1_1 + a4c2_18_4_1_2
   + a4c2_18_4_1_3 = 1
 R3513: med4a2_18_0 + med4a2_18_1 - medcol2_18 = 0
 R3514: a3c2_19_0_1_0 + a3c2_19_1_1_0 + a3c2_19_2_1_0 + a3c2_19_3_1_0
   + a3c2_19_4_1_0 + a3c2_19_5_1_0 = 1
 R3515: a3c2_19_0_1_1 + a3c2_19_1_1_1 + a3c2_19_2_1_1 + a3c2_19_3_1_1
   + a3c2_19_4_1_1 + a3c2_19_5_1_1 = 1
 R3516: a3c2_19_0_1_2 + a3c2_19_1_1_2 + a3c2_19_2_1_2 + a3c2_19_3_1_2
   + a3c2_19_4_1_2 + a3c2_19_5_1_2 = 1
 R3517: a3c2_19_0_2_0 + a3c2_19_1_2_0 + a3c2_19_2_2_0 + a3c2_19_3_2_0
   + a3c2_19_4_2_0 + a3c2_19_5_2_0 = 1
 R3518: a3c2_19_0_2_1 + a3c2_19_1_2_1 + a3c2_19_2_2_1 + a3c2_19_3_2_1
   + a3c2_19_4_2_1 + a3c2_19_5_2_1 = 1
 R3519: a3c2_19_0_2_2 + a3c2_19_1_2_2 + a3c2_19_2_2_2 + a3c2_19_3_2_2
   + a3c2_19_4_2_2 + a3c2_19_5_2_2 = 1
 R3520: a3c2_19_0_1_0 + a3c2_19_0_1_1 + a3c2_19_0_1_2 + a3c2_19_0_2_0
   + a3c2_19_0_2_1 + a3c2_19_0_2_2 = 1
 R3521: a3c2_19_1_1_0 + a3c2_19_1_1_1 + a3c2_19_1_1_2 + a3c2_19_1_2_0
   + a3c2_19_1_2_1 + a3c2_19_1_2_2 = 1
 R3522: a3c2_19_2_1_0 + a3c2_19_2_1_1 + a3c2_19_2_1_2 + a3c2_19_2_2_0
   + a3c2_19_2_2_1 + a3c2_19_2_2_2 = 1
 R3523: a3c2_19_3_1_0 + a3c2_19_3_1_1 + a3c2_19_3_1_2 + a3c2_19_3_2_0
   + a3c2_19_3_2_1 + a3c2_19_3_2_2 = 1
 R3524: a3c2_19_4_1_0 + a3c2_19_4_1_1 + a3c2_19_4_1_2 + a3c2_19_4_2_0
   + a3c2_19_4_2_1 + a3c2_19_4_2_2 = 1
 R3525: a3c2_19_5_1_0 + a3c2_19_5_1_1 + a3c2_19_5_1_2 + a3c2_19_5_2_0
   + a3c2_19_5_2_1 + a3c2_19_5_2_2 = 1
 R3526: - medcol2_19 = 0
 R3527: a4c2_20_0_1_0 + a4c2_20_1_1_0 + a4c2_20_2_1_0 + a4c2_20_3_1_0
   + a4c2_20_4_1_0 + a4c2_20_5_1_0 + a4c2_20_6_1_0 = 1
 R3528: a4c2_20_0_1_1 + a4c2_20_1_1_1 + a4c2_20_2_1_1 + a4c2_20_3_1_1
   + a4c2_20_4_1_1 + a4c2_20_5_1_1 + a4c2_20_6_1_1 = 1
 R3529: a4c2_20_0_1_2 + a4c2_20_1_1_2 + a4c2_20_2_1_2 + a4c2_20_3_1_2
   + a4c2_20_4_1_2 + a4c2_20_5_1_2 + a4c2_20_6_1_2 = 1
 R3530: a4c2_20_0_1_3 + a4c2_20_1_1_3 + a4c2_20_2_1_3 + a4c2_20_3_1_3
   + a4c2_20_4_1_3 + a4c2_20_5_1_3 + a4c2_20_6_1_3 = 1
 R3531: a3c2_20_0_1_0 + a3c2_20_1_1_0 + a3c2_20_2_1_0 + a3c2_20_3_1_0
   + a3c2_20_4_1_0 + a3c2_20_5_1_0 + a3c2_20_6_1_0 = 1
 R3532: a3c2_20_0_1_1 + a3c2_20_1_1_1 + a3c2_20_2_1_1 + a3c2_20_3_1_1
   + a3c2_20_4_1_1 + a3c2_20_5_1_1 + a3c2_20_6_1_1 = 1
 R3533: a3c2_20_0_1_2 + a3c2_20_1_1_2 + a3c2_20_2_1_2 + a3c2_20_3_1_2
   + a3c2_20_4_1_2 + a3c2_20_5_1_2 + a3c2_20_6_1_2 = 1
 R3534: a4c2_20_0_1_0 + a4c2_20_0_1_1 + a4c2_20_0_1_2 + a4c2_20_0_1_3
   + a3c2_20_0_1_0 + a3c2_20_0_1_1 + a3c2_20_0_1_2 = 1
 R3535: a4c2_20_1_1_0 + a4c2_20_1_1_1 + a4c2_20_1_1_2 + a4c2_20_1_1_3
   + a3c2_20_1_1_0 + a3c2_20_1_1_1 + a3c2_20_1_1_2 = 1
 R3536: a4c2_20_2_1_0 + a4c2_20_2_1_1 + a4c2_20_2_1_2 + a4c2_20_2_1_3
   + a3c2_20_2_1_0 + a3c2_20_2_1_1 + a3c2_20_2_1_2 = 1
 R3537: a4c2_20_3_1_0 + a4c2_20_3_1_1 + a4c2_20_3_1_2 + a4c2_20_3_1_3
   + a3c2_20_3_1_0 + a3c2_20_3_1_1 + a3c2_20_3_1_2 = 1
 R3538: a4c2_20_4_1_0 + a4c2_20_4_1_1 + a4c2_20_4_1_2 + a4c2_20_4_1_3
   + a3c2_20_4_1_0 + a3c2_20_4_1_1 + a3c2_20_4_1_2 = 1
 R3539: a4c2_20_5_1_0 + a4c2_20_5_1_1 + a4c2_20_5_1_2 + a4c2_20_5_1_3
   + a3c2_20_5_1_0 + a3c2_20_5_1_1 + a3c2_20_5_1_2 = 1
 R3540: a4c2_20_6_1_0 + a4c2_20_6_1_1 + a4c2_20_6_1_2 + a4c2_20_6_1_3
   + a3c2_20_6_1_0 + a3c2_20_6_1_1 + a3c2_20_6_1_2 = 1
 R3541: med3a2_20_0 + med3a2_20_1 - medcol2_20 = 0
 R3542: a4c2_21_0_1_0 + a4c2_21_1_1_0 + a4c2_21_2_1_0 + a4c2_21_3_1_0
   + a4c2_21_4_1_0 + a4c2_21_5_1_0 + a4c2_21_6_1_0 + a4c2_21_7_1_0 = 1
 R3543: a4c2_21_0_1_1 + a4c2_21_1_1_1 + a4c2_21_2_1_1 + a4c2_21_3_1_1
   + a4c2_21_4_1_1 + a4c2_21_5_1_1 + a4c2_21_6_1_1 + a4c2_21_7_1_1 = 1
 R3544: a4c2_21_0_1_2 + a4c2_21_1_1_2 + a4c2_21_2_1_2 + a4c2_21_3_1_2
   + a4c2_21_4_1_2 + a4c2_21_5_1_2 + a4c2_21_6_1_2 + a4c2_21_7_1_2 = 1
 R3545: a4c2_21_0_1_3 + a4c2_21_1_1_3 + a4c2_21_2_1_3 + a4c2_21_3_1_3
   + a4c2_21_4_1_3 + a4c2_21_5_1_3 + a4c2_21_6_1_3 + a4c2_21_7_1_3 = 1
 R3546: a4c2_21_0_2_0 + a4c2_21_1_2_0 + a4c2_21_2_2_0 + a4c2_21_3_2_0
   + a4c2_21_4_2_0 + a4c2_21_5_2_0 + a4c2_21_6_2_0 + a4c2_21_7_2_0 = 1
 R3547: a4c2_21_0_2_1 + a4c2_21_1_2_1 + a4c2_21_2_2_1 + a4c2_21_3_2_1
   + a4c2_21_4_2_1 + a4c2_21_5_2_1 + a4c2_21_6_2_1 + a4c2_21_7_2_1 = 1
 R3548: a4c2_21_0_2_2 + a4c2_21_1_2_2 + a4c2_21_2_2_2 + a4c2_21_3_2_2
   + a4c2_21_4_2_2 + a4c2_21_5_2_2 + a4c2_21_6_2_2 + a4c2_21_7_2_2 = 1
 R3549: a4c2_21_0_2_3 + a4c2_21_1_2_3 + a4c2_21_2_2_3 + a4c2_21_3_2_3
   + a4c2_21_4_2_3 + a4c2_21_5_2_3 + a4c2_21_6_2_3 + a4c2_21_7_2_3 = 1
 R3550: a4c2_21_0_1_0 + a4c2_21_0_1_1 + a4c2_21_0_1_2 + a4c2_21_0_1_3
   + a4c2_21_0_2_0 + a4c2_21_0_2_1 + a4c2_21_0_2_2 + a4c2_21_0_2_3 = 1
 R3551: a4c2_21_1_1_0 + a4c2_21_1_1_1 + a4c2_21_1_1_2 + a4c2_21_1_1_3
   + a4c2_21_1_2_0 + a4c2_21_1_2_1 + a4c2_21_1_2_2 + a4c2_21_1_2_3 = 1
 R3552: a4c2_21_2_1_0 + a4c2_21_2_1_1 + a4c2_21_2_1_2 + a4c2_21_2_1_3
   + a4c2_21_2_2_0 + a4c2_21_2_2_1 + a4c2_21_2_2_2 + a4c2_21_2_2_3 = 1
 R3553: a4c2_21_3_1_0 + a4c2_21_3_1_1 + a4c2_21_3_1_2 + a4c2_21_3_1_3
   + a4c2_21_3_2_0 + a4c2_21_3_2_1 + a4c2_21_3_2_2 + a4c2_21_3_2_3 = 1
 R3554: a4c2_21_4_1_0 + a4c2_21_4_1_1 + a4c2_21_4_1_2 + a4c2_21_4_1_3
   + a4c2_21_4_2_0 + a4c2_21_4_2_1 + a4c2_21_4_2_2 + a4c2_21_4_2_3 = 1
 R3555: a4c2_21_5_1_0 + a4c2_21_5_1_1 + a4c2_21_5_1_2 + a4c2_21_5_1_3
   + a4c2_21_5_2_0 + a4c2_21_5_2_1 + a4c2_21_5_2_2 + a4c2_21_5_2_3 = 1
 R3556: a4c2_21_6_1_0 + a4c2_21_6_1_1 + a4c2_21_6_1_2 + a4c2_21_6_1_3
   + a4c2_21_6_2_0 + a4c2_21_6_2_1 + a4c2_21_6_2_2 + a4c2_21_6_2_3 = 1
 R3557: a4c2_21_7_1_0 + a4c2_21_7_1_1 + a4c2_21_7_1_2 + a4c2_21_7_1_3
   + a4c2_21_7_2_0 + a4c2_21_7_2_1 + a4c2_21_7_2_2 + a4c2_21_7_2_3 = 1
 R3558: - medcol2_21 = 0
 R3559: rb2_22_0_0 + rb2_22_1_0 + rb2_22_2_0 + rb2_22_3_0 = 1
 R3560: rb2_22_0_1 + rb2_22_1_1 + rb2_22_2_1 + rb2_22_3_1 = 1
 R3561: rb2_22_0_2 + rb2_22_1_2 + rb2_22_2_2 + rb2_22_3_2 = 1
 R3562: rb2_22_0_3 + rb2_22_1_3 + rb2_22_2_3 + rb2_22_3_3 = 1
 R3563: rb2_22_0_0 + rb2_22_0_1 + rb2_22_0_2 + rb2_22_0_3 = 1
 R3564: rb2_22_1_0 + rb2_22_1_1 + rb2_22_1_2 + rb2_22_1_3 = 1
 R3565: rb2_22_2_0 + rb2_22_2_1 + rb2_22_2_2 + rb2_22_2_3 = 1
 R3566: rb2_22_3_0 + rb2_22_3_1 + rb2_22_3_2 + rb2_22_3_3 = 1
 R3567: med4a2_22_0 + med3a2_22_0 - medcol2_22 = 0
 R3568: rb2_23_0_0 + rb2_23_1_0 + rb2_23_2_0 + rb2_23_3_0 + rb2_23_4_0 = 1
 R3569: rb2_23_0_1 + rb2_23_1_1 + rb2_23_2_1 + rb2_23_3_1 + rb2_23_4_1 = 1
 R3570: a3c2_23_0_1_0 + a3c2_23_1_1_0 + a3c2_23_2_1_0 + a3c2_23_3_1_0
   + a3c2_23_4_1_0 = 1
 R3571: a3c2_23_0_1_1 + a3c2_23_1_1_1 + a3c2_23_2_1_1 + a3c2_23_3_1_1
   + a3c2_23_4_1_1 = 1
 R3572: a3c2_23_0_1_2 + a3c2_23_1_1_2 + a3c2_23_2_1_2 + a3c2_23_3_1_2
   + a3c2_23_4_1_2 = 1
 R3573: rb2_23_0_0 + rb2_23_0_1 + a3c2_23_0_1_0 + a3c2_23_0_1_1
   + a3c2_23_0_1_2 = 1
 R3574: rb2_23_1_0 + rb2_23_1_1 + a3c2_23_1_1_0 + a3c2_23_1_1_1
   + a3c2_23_1_1_2 = 1
 R3575: rb2_23_2_0 + rb2_23_2_1 + a3c2_23_2_1_0 + a3c2_23_2_1_1
   + a3c2_23_2_1_2 = 1
 R3576: rb2_23_3_0 + rb2_23_3_1 + a3c2_23_3_1_0 + a3c2_23_3_1_1
   + a3c2_23_3_1_2 = 1
 R3577: rb2_23_4_0 + rb2_23_4_1 + a3c2_23_4_1_0 + a3c2_23_4_1_1
   + a3c2_23_4_1_2 = 1
 R3578: med4a2_23_0 - medcol2_23 = 0
 R3579: a4c2_24_0_1_0 + a4c2_24_1_1_0 + a4c2_24_2_1_0 + a4c2_24_3_1_0
   + a4c2_24_4_1_0 + a4c2_24_5_1_0 + a4c2_24_6_1_0 + a4c2_24_7_1_0 = 1
 R3580: a4c2_24_0_1_1 + a4c2_24_1_1_1 + a4c2_24_2_1_1 + a4c2_24_3_1_1
   + a4c2_24_4_1_1 + a4c2_24_5_1_1 + a4c2_24_6_1_1 + a4c2_24_7_1_1 = 1
 R3581: a4c2_24_0_1_2 + a4c2_24_1_1_2 + a4c2_24_2_1_2 + a4c2_24_3_1_2
   + a4c2_24_4_1_2 + a4c2_24_5_1_2 + a4c2_24_6_1_2 + a4c2_24_7_1_2 = 1
 R3582: a4c2_24_0_1_3 + a4c2_24_1_1_3 + a4c2_24_2_1_3 + a4c2_24_3_1_3
   + a4c2_24_4_1_3 + a4c2_24_5_1_3 + a4c2_24_6_1_3 + a4c2_24_7_1_3 = 1
 R3583: a4c2_24_0_2_0 + a4c2_24_1_2_0 + a4c2_24_2_2_0 + a4c2_24_3_2_0
   + a4c2_24_4_2_0 + a4c2_24_5_2_0 + a4c2_24_6_2_0 + a4c2_24_7_2_0 = 1
 R3584: a4c2_24_0_2_1 + a4c2_24_1_2_1 + a4c2_24_2_2_1 + a4c2_24_3_2_1
   + a4c2_24_4_2_1 + a4c2_24_5_2_1 + a4c2_24_6_2_1 + a4c2_24_7_2_1 = 1
 R3585: a4c2_24_0_2_2 + a4c2_24_1_2_2 + a4c2_24_2_2_2 + a4c2_24_3_2_2
   + a4c2_24_4_2_2 + a4c2_24_5_2_2 + a4c2_24_6_2_2 + a4c2_24_7_2_2 = 1
 R3586: a4c2_24_0_2_3 + a4c2_24_1_2_3 + a4c2_24_2_2_3 + a4c2_24_3_2_3
   + a4c2_24_4_2_3 + a4c2_24_5_2_3 + a4c2_24_6_2_3 + a4c2_24_7_2_3 = 1
 R3587: a4c2_24_0_1_0 + a4c2_24_0_1_1 + a4c2_24_0_1_2 + a4c2_24_0_1_3
   + a4c2_24_0_2_0 + a4c2_24_0_2_1 + a4c2_24_0_2_2 + a4c2_24_0_2_3 = 1
 R3588: a4c2_24_1_1_0 + a4c2_24_1_1_1 + a4c2_24_1_1_2 + a4c2_24_1_1_3
   + a4c2_24_1_2_0 + a4c2_24_1_2_1 + a4c2_24_1_2_2 + a4c2_24_1_2_3 = 1
 R3589: a4c2_24_2_1_0 + a4c2_24_2_1_1 + a4c2_24_2_1_2 + a4c2_24_2_1_3
   + a4c2_24_2_2_0 + a4c2_24_2_2_1 + a4c2_24_2_2_2 + a4c2_24_2_2_3 = 1
 R3590: a4c2_24_3_1_0 + a4c2_24_3_1_1 + a4c2_24_3_1_2 + a4c2_24_3_1_3
   + a4c2_24_3_2_0 + a4c2_24_3_2_1 + a4c2_24_3_2_2 + a4c2_24_3_2_3 = 1
 R3591: a4c2_24_4_1_0 + a4c2_24_4_1_1 + a4c2_24_4_1_2 + a4c2_24_4_1_3
   + a4c2_24_4_2_0 + a4c2_24_4_2_1 + a4c2_24_4_2_2 + a4c2_24_4_2_3 = 1
 R3592: a4c2_24_5_1_0 + a4c2_24_5_1_1 + a4c2_24_5_1_2 + a4c2_24_5_1_3
   + a4c2_24_5_2_0 + a4c2_24_5_2_1 + a4c2_24_5_2_2 + a4c2_24_5_2_3 = 1
 R3593: a4c2_24_6_1_0 + a4c2_24_6_1_1 + a4c2_24_6_1_2 + a4c2_24_6_1_3
   + a4c2_24_6_2_0 + a4c2_24_6_2_1 + a4c2_24_6_2_2 + a4c2_24_6_2_3 = 1
 R3594: a4c2_24_7_1_0 + a4c2_24_7_1_1 + a4c2_24_7_1_2 + a4c2_24_7_1_3
   + a4c2_24_7_2_0 + a4c2_24_7_2_1 + a4c2_24_7_2_2 + a4c2_24_7_2_3 = 1
 R3595: - medcol2_24 = 0
 R3596: a4c2_25_0_1_0 + a4c2_25_1_1_0 + a4c2_25_2_1_0 + a4c2_25_3_1_0
   + a4c2_25_4_1_0 + a4c2_25_5_1_0 + a4c2_25_6_1_0 + a4c2_25_7_1_0 = 1
 R3597: a4c2_25_0_1_1 + a4c2_25_1_1_1 + a4c2_25_2_1_1 + a4c2_25_3_1_1
   + a4c2_25_4_1_1 + a4c2_25_5_1_1 + a4c2_25_6_1_1 + a4c2_25_7_1_1 = 1
 R3598: a4c2_25_0_1_2 + a4c2_25_1_1_2 + a4c2_25_2_1_2 + a4c2_25_3_1_2
   + a4c2_25_4_1_2 + a4c2_25_5_1_2 + a4c2_25_6_1_2 + a4c2_25_7_1_2 = 1
 R3599: a4c2_25_0_1_3 + a4c2_25_1_1_3 + a4c2_25_2_1_3 + a4c2_25_3_1_3
   + a4c2_25_4_1_3 + a4c2_25_5_1_3 + a4c2_25_6_1_3 + a4c2_25_7_1_3 = 1
 R3600: a4c2_25_0_2_0 + a4c2_25_1_2_0 + a4c2_25_2_2_0 + a4c2_25_3_2_0
   + a4c2_25_4_2_0 + a4c2_25_5_2_0 + a4c2_25_6_2_0 + a4c2_25_7_2_0 = 1
 R3601: a4c2_25_0_2_1 + a4c2_25_1_2_1 + a4c2_25_2_2_1 + a4c2_25_3_2_1
   + a4c2_25_4_2_1 + a4c2_25_5_2_1 + a4c2_25_6_2_1 + a4c2_25_7_2_1 = 1
 R3602: a4c2_25_0_2_2 + a4c2_25_1_2_2 + a4c2_25_2_2_2 + a4c2_25_3_2_2
   + a4c2_25_4_2_2 + a4c2_25_5_2_2 + a4c2_25_6_2_2 + a4c2_25_7_2_2 = 1
 R3603: a4c2_25_0_2_3 + a4c2_25_1_2_3 + a4c2_25_2_2_3 + a4c2_25_3_2_3
   + a4c2_25_4_2_3 + a4c2_25_5_2_3 + a4c2_25_6_2_3 + a4c2_25_7_2_3 = 1
 R3604: a4c2_25_0_1_0 + a4c2_25_0_1_1 + a4c2_25_0_1_2 + a4c2_25_0_1_3
   + a4c2_25_0_2_0 + a4c2_25_0_2_1 + a4c2_25_0_2_2 + a4c2_25_0_2_3 = 1
 R3605: a4c2_25_1_1_0 + a4c2_25_1_1_1 + a4c2_25_1_1_2 + a4c2_25_1_1_3
   + a4c2_25_1_2_0 + a4c2_25_1_2_1 + a4c2_25_1_2_2 + a4c2_25_1_2_3 = 1
 R3606: a4c2_25_2_1_0 + a4c2_25_2_1_1 + a4c2_25_2_1_2 + a4c2_25_2_1_3
   + a4c2_25_2_2_0 + a4c2_25_2_2_1 + a4c2_25_2_2_2 + a4c2_25_2_2_3 = 1
 R3607: a4c2_25_3_1_0 + a4c2_25_3_1_1 + a4c2_25_3_1_2 + a4c2_25_3_1_3
   + a4c2_25_3_2_0 + a4c2_25_3_2_1 + a4c2_25_3_2_2 + a4c2_25_3_2_3 = 1
 R3608: a4c2_25_4_1_0 + a4c2_25_4_1_1 + a4c2_25_4_1_2 + a4c2_25_4_1_3
   + a4c2_25_4_2_0 + a4c2_25_4_2_1 + a4c2_25_4_2_2 + a4c2_25_4_2_3 = 1
 R3609: a4c2_25_5_1_0 + a4c2_25_5_1_1 + a4c2_25_5_1_2 + a4c2_25_5_1_3
   + a4c2_25_5_2_0 + a4c2_25_5_2_1 + a4c2_25_5_2_2 + a4c2_25_5_2_3 = 1
 R3610: a4c2_25_6_1_0 + a4c2_25_6_1_1 + a4c2_25_6_1_2 + a4c2_25_6_1_3
   + a4c2_25_6_2_0 + a4c2_25_6_2_1 + a4c2_25_6_2_2 + a4c2_25_6_2_3 = 1
 R3611: a4c2_25_7_1_0 + a4c2_25_7_1_1 + a4c2_25_7_1_2 + a4c2_25_7_1_3
   + a4c2_25_7_2_0 + a4c2_25_7_2_1 + a4c2_25_7_2_2 + a4c2_25_7_2_3 = 1
 R3612: - medcol2_25 = 0
 R3613: a3c2_26_0_1_0 + a3c2_26_1_1_0 + a3c2_26_2_1_0 = 1
 R3614: a3c2_26_0_1_1 + a3c2_26_1_1_1 + a3c2_26_2_1_1 = 1
 R3615: a3c2_26_0_1_2 + a3c2_26_1_1_2 + a3c2_26_2_1_2 = 1
 R3616: a3c2_26_0_1_0 + a3c2_26_0_1_1 + a3c2_26_0_1_2 = 1
 R3617: a3c2_26_1_1_0 + a3c2_26_1_1_1 + a3c2_26_1_1_2 = 1
 R3618: a3c2_26_2_1_0 + a3c2_26_2_1_1 + a3c2_26_2_1_2 = 1
 R3619: med4a2_26_0 - medcol2_26 = 0
 R3620: rb2_27_0_0 + rb2_27_1_0 + rb2_27_2_0 + rb2_27_3_0 + rb2_27_4_0 = 1
 R3621: a4c2_27_0_1_0 + a4c2_27_1_1_0 + a4c2_27_2_1_0 + a4c2_27_3_1_0
   + a4c2_27_4_1_0 = 1
 R3622: a4c2_27_0_1_1 + a4c2_27_1_1_1 + a4c2_27_2_1_1 + a4c2_27_3_1_1
   + a4c2_27_4_1_1 = 1
 R3623: a4c2_27_0_1_2 + a4c2_27_1_1_2 + a4c2_27_2_1_2 + a4c2_27_3_1_2
   + a4c2_27_4_1_2 = 1
 R3624: a4c2_27_0_1_3 + a4c2_27_1_1_3 + a4c2_27_2_1_3 + a4c2_27_3_1_3
   + a4c2_27_4_1_3 = 1
 R3625: rb2_27_0_0 + a4c2_27_0_1_0 + a4c2_27_0_1_1 + a4c2_27_0_1_2
   + a4c2_27_0_1_3 = 1
 R3626: rb2_27_1_0 + a4c2_27_1_1_0 + a4c2_27_1_1_1 + a4c2_27_1_1_2
   + a4c2_27_1_1_3 = 1
 R3627: rb2_27_2_0 + a4c2_27_2_1_0 + a4c2_27_2_1_1 + a4c2_27_2_1_2
   + a4c2_27_2_1_3 = 1
 R3628: rb2_27_3_0 + a4c2_27_3_1_0 + a4c2_27_3_1_1 + a4c2_27_3_1_2
   + a4c2_27_3_1_3 = 1
 R3629: rb2_27_4_0 + a4c2_27_4_1_0 + a4c2_27_4_1_1 + a4c2_27_4_1_2
   + a4c2_27_4_1_3 = 1
 R3630: med3a2_27_0 - medcol2_27 = 0
 R3631: rb2_28_0_0 + rb2_28_1_0 + rb2_28_2_0 + rb2_28_3_0 = 1
 R3632: a3c2_28_0_1_0 + a3c2_28_1_1_0 + a3c2_28_2_1_0 + a3c2_28_3_1_0 = 1
 R3633: a3c2_28_0_1_1 + a3c2_28_1_1_1 + a3c2_28_2_1_1 + a3c2_28_3_1_1 = 1
 R3634: a3c2_28_0_1_2 + a3c2_28_1_1_2 + a3c2_28_2_1_2 + a3c2_28_3_1_2 = 1
 R3635: rb2_28_0_0 + a3c2_28_0_1_0 + a3c2_28_0_1_1 + a3c2_28_0_1_2 = 1
 R3636: rb2_28_1_0 + a3c2_28_1_1_0 + a3c2_28_1_1_1 + a3c2_28_1_1_2 = 1
 R3637: rb2_28_2_0 + a3c2_28_2_1_0 + a3c2_28_2_1_1 + a3c2_28_2_1_2 = 1
 R3638: rb2_28_3_0 + a3c2_28_3_1_0 + a3c2_28_3_1_1 + a3c2_28_3_1_2 = 1
 R3639: med3a2_28_0 - medcol2_28 = 0
 R3640: rb2_29_0_0 + rb2_29_1_0 + rb2_29_2_0 + rb2_29_3_0 + rb2_29_4_0
   + rb2_29_5_0 = 1
 R3641: rb2_29_0_1 + rb2_29_1_1 + rb2_29_2_1 + rb2_29_3_1 + rb2_29_4_1
   + rb2_29_5_1 = 1
 R3642: rb2_29_0_2 + rb2_29_1_2 + rb2_29_2_2 + rb2_29_3_2 + rb2_29_4_2
   + rb2_29_5_2 = 1
 R3643: f2_29_0_1_0 + f2_29_1_1_0 + f2_29_2_1_0 + f2_29_3_1_0 + f2_29_4_1_0
   + f2_29_5_1_0 = 1
 R3644: f2_29_0_1_1 + f2_29_1_1_1 + f2_29_2_1_1 + f2_29_3_1_1 + f2_29_4_1_1
   + f2_29_5_1_1 = 1
 R3645: f2_29_0_1_2 + f2_29_1_1_2 + f2_29_2_1_2 + f2_29_3_1_2 + f2_29_4_1_2
   + f2_29_5_1_2 = 1
 R3646: rb2_29_0_0 + rb2_29_0_1 + rb2_29_0_2 + f2_29_0_1_0 + f2_29_0_1_1
   + f2_29_0_1_2 = 1
 R3647: rb2_29_1_0 + rb2_29_1_1 + rb2_29_1_2 + f2_29_1_1_0 + f2_29_1_1_1
   + f2_29_1_1_2 = 1
 R3648: rb2_29_2_0 + rb2_29_2_1 + rb2_29_2_2 + f2_29_2_1_0 + f2_29_2_1_1
   + f2_29_2_1_2 = 1
 R3649: rb2_29_3_0 + rb2_29_3_1 + rb2_29_3_2 + f2_29_3_1_0 + f2_29_3_1_1
   + f2_29_3_1_2 = 1
 R3650: rb2_29_4_0 + rb2_29_4_1 + rb2_29_4_2 + f2_29_4_1_0 + f2_29_4_1_1
   + f2_29_4_1_2 = 1
 R3651: rb2_29_5_0 + rb2_29_5_1 + rb2_29_5_2 + f2_29_5_1_0 + f2_29_5_1_1
   + f2_29_5_1_2 = 1
 R3652: - medcol2_29 = 0
 R3653: rb2_30_0_0 + rb2_30_1_0 + rb2_30_2_0 = 1
 R3654: rb2_30_0_1 + rb2_30_1_1 + rb2_30_2_1 = 1
 R3655: rb2_30_0_2 + rb2_30_1_2 + rb2_30_2_2 = 1
 R3656: rb2_30_0_0 + rb2_30_0_1 + rb2_30_0_2 = 1
 R3657: rb2_30_1_0 + rb2_30_1_1 + rb2_30_1_2 = 1
 R3658: rb2_30_2_0 + rb2_30_2_1 + rb2_30_2_2 = 1
 R3659: med4a2_30_0 - medcol2_30 = 0
 R3660: a3c2_31_0_1_0 + a3c2_31_1_1_0 + a3c2_31_2_1_0 = 1
 R3661: a3c2_31_0_1_1 + a3c2_31_1_1_1 + a3c2_31_2_1_1 = 1
 R3662: a3c2_31_0_1_2 + a3c2_31_1_1_2 + a3c2_31_2_1_2 = 1
 R3663: a3c2_31_0_1_0 + a3c2_31_0_1_1 + a3c2_31_0_1_2 = 1
 R3664: a3c2_31_1_1_0 + a3c2_31_1_1_1 + a3c2_31_1_1_2 = 1
 R3665: a3c2_31_2_1_0 + a3c2_31_2_1_1 + a3c2_31_2_1_2 = 1
 R3666: med3a2_31_0 - medcol2_31 = 0
 R3667: rb2_32_0_0 + rb2_32_1_0 + rb2_32_2_0 = 1
 R3668: rb2_32_0_1 + rb2_32_1_1 + rb2_32_2_1 = 1
 R3669: rb2_32_0_2 + rb2_32_1_2 + rb2_32_2_2 = 1
 R3670: rb2_32_0_0 + rb2_32_0_1 + rb2_32_0_2 = 1
 R3671: rb2_32_1_0 + rb2_32_1_1 + rb2_32_1_2 = 1
 R3672: rb2_32_2_0 + rb2_32_2_1 + rb2_32_2_2 = 1
 R3673: - medcol2_32 = 0
 R3674: rb2_33_0_0 + rb2_33_1_0 = 1
 R3675: rb2_33_0_1 + rb2_33_1_1 = 1
 R3676: rb2_33_0_0 + rb2_33_0_1 = 1
 R3677: rb2_33_1_0 + rb2_33_1_1 = 1
 R3678: - medcol2_33 = 0
 R3679: rb2_34_0_0 = 1
 R3680: rb2_34_0_0 = 1
 R3681: - medcol2_34 = 0
 R3682: - medcol3_0 = 0
 R3683: - medcol3_1 = 0
 R3684: - medcol3_2 = 0
 R3685: - medcol3_3 = 0
 R3686: rb3_4_0_0 + rb3_4_1_0 = 1
 R3687: rb3_4_0_1 + rb3_4_1_1 = 1
 R3688: rb3_4_0_0 + rb3_4_0_1 = 1
 R3689: rb3_4_1_0 + rb3_4_1_1 = 1
 R3690: - medcol3_4 = 0
 R3691: rb3_5_0_0 = 1
 R3692: rb3_5_0_0 = 1
 R3693: - medcol3_5 = 0
 R3694: f3_6_0_1_0 + f3_6_1_1_0 + f3_6_2_1_0 = 1
 R3695: f3_6_0_1_1 + f3_6_1_1_1 + f3_6_2_1_1 = 1
 R3696: f3_6_0_1_2 + f3_6_1_1_2 + f3_6_2_1_2 = 1
 R3697: f3_6_0_1_0 + f3_6_0_1_1 + f3_6_0_1_2 = 1
 R3698: f3_6_1_1_0 + f3_6_1_1_1 + f3_6_1_1_2 = 1
 R3699: f3_6_2_1_0 + f3_6_2_1_1 + f3_6_2_1_2 = 1
 R3700: - medcol3_6 = 0
 R3701: f3_7_0_1_0 + f3_7_1_1_0 + f3_7_2_1_0 = 1
 R3702: f3_7_0_1_1 + f3_7_1_1_1 + f3_7_2_1_1 = 1
 R3703: f3_7_0_1_2 + f3_7_1_1_2 + f3_7_2_1_2 = 1
 R3704: f3_7_0_1_0 + f3_7_0_1_1 + f3_7_0_1_2 = 1
 R3705: f3_7_1_1_0 + f3_7_1_1_1 + f3_7_1_1_2 = 1
 R3706: f3_7_2_1_0 + f3_7_2_1_1 + f3_7_2_1_2 = 1
 R3707: - medcol3_7 = 0
 R3708: f3_8_0_1_0 + f3_8_1_1_0 + f3_8_2_1_0 = 1
 R3709: f3_8_0_1_1 + f3_8_1_1_1 + f3_8_2_1_1 = 1
 R3710: f3_8_0_1_2 + f3_8_1_1_2 + f3_8_2_1_2 = 1
 R3711: f3_8_0_1_0 + f3_8_0_1_1 + f3_8_0_1_2 = 1
 R3712: f3_8_1_1_0 + f3_8_1_1_1 + f3_8_1_1_2 = 1
 R3713: f3_8_2_1_0 + f3_8_2_1_1 + f3_8_2_1_2 = 1
 R3714: - medcol3_8 = 0
 R3715: f3_9_0_1_0 + f3_9_1_1_0 + f3_9_2_1_0 = 1
 R3716: f3_9_0_1_1 + f3_9_1_1_1 + f3_9_2_1_1 = 1
 R3717: f3_9_0_1_2 + f3_9_1_1_2 + f3_9_2_1_2 = 1
 R3718: f3_9_0_1_0 + f3_9_0_1_1 + f3_9_0_1_2 = 1
 R3719: f3_9_1_1_0 + f3_9_1_1_1 + f3_9_1_1_2 = 1
 R3720: f3_9_2_1_0 + f3_9_2_1_1 + f3_9_2_1_2 = 1
 R3721: - medcol3_9 = 0
 R3722: f3_10_0_1_0 + f3_10_1_1_0 + f3_10_2_1_0 = 1
 R3723: f3_10_0_1_1 + f3_10_1_1_1 + f3_10_2_1_1 = 1
 R3724: f3_10_0_1_2 + f3_10_1_1_2 + f3_10_2_1_2 = 1
 R3725: f3_10_0_1_0 + f3_10_0_1_1 + f3_10_0_1_2 = 1
 R3726: f3_10_1_1_0 + f3_10_1_1_1 + f3_10_1_1_2 = 1
 R3727: f3_10_2_1_0 + f3_10_2_1_1 + f3_10_2_1_2 = 1
 R3728: - medcol3_10 = 0
 R3729: f3_11_0_1_0 + f3_11_1_1_0 + f3_11_2_1_0 = 1
 R3730: f3_11_0_1_1 + f3_11_1_1_1 + f3_11_2_1_1 = 1
 R3731: f3_11_0_1_2 + f3_11_1_1_2 + f3_11_2_1_2 = 1
 R3732: f3_11_0_1_0 + f3_11_0_1_1 + f3_11_0_1_2 = 1
 R3733: f3_11_1_1_0 + f3_11_1_1_1 + f3_11_1_1_2 = 1
 R3734: f3_11_2_1_0 + f3_11_2_1_1 + f3_11_2_1_2 = 1
 R3735: - medcol3_11 = 0
 R3736: f3_12_0_1_0 + f3_12_1_1_0 + f3_12_2_1_0 = 1
 R3737: f3_12_0_1_1 + f3_12_1_1_1 + f3_12_2_1_1 = 1
 R3738: f3_12_0_1_2 + f3_12_1_1_2 + f3_12_2_1_2 = 1
 R3739: f3_12_0_1_0 + f3_12_0_1_1 + f3_12_0_1_2 = 1
 R3740: f3_12_1_1_0 + f3_12_1_1_1 + f3_12_1_1_2 = 1
 R3741: f3_12_2_1_0 + f3_12_2_1_1 + f3_12_2_1_2 = 1
 R3742: - medcol3_12 = 0
 R3743: f3_13_0_1_0 + f3_13_1_1_0 + f3_13_2_1_0 = 1
 R3744: f3_13_0_1_1 + f3_13_1_1_1 + f3_13_2_1_1 = 1
 R3745: f3_13_0_1_2 + f3_13_1_1_2 + f3_13_2_1_2 = 1
 R3746: f3_13_0_1_0 + f3_13_0_1_1 + f3_13_0_1_2 = 1
 R3747: f3_13_1_1_0 + f3_13_1_1_1 + f3_13_1_1_2 = 1
 R3748: f3_13_2_1_0 + f3_13_2_1_1 + f3_13_2_1_2 = 1
 R3749: med3a3_13_0 - medcol3_13 = 0
 R3750: rb3_14_0_0 + rb3_14_1_0 + rb3_14_2_0 + rb3_14_3_0 = 1
 R3751: f3_14_0_1_0 + f3_14_1_1_0 + f3_14_2_1_0 + f3_14_3_1_0 = 1
 R3752: f3_14_0_1_1 + f3_14_1_1_1 + f3_14_2_1_1 + f3_14_3_1_1 = 1
 R3753: f3_14_0_1_2 + f3_14_1_1_2 + f3_14_2_1_2 + f3_14_3_1_2 = 1
 R3754: rb3_14_0_0 + f3_14_0_1_0 + f3_14_0_1_1 + f3_14_0_1_2 = 1
 R3755: rb3_14_1_0 + f3_14_1_1_0 + f3_14_1_1_1 + f3_14_1_1_2 = 1
 R3756: rb3_14_2_0 + f3_14_2_1_0 + f3_14_2_1_1 + f3_14_2_1_2 = 1
 R3757: rb3_14_3_0 + f3_14_3_1_0 + f3_14_3_1_1 + f3_14_3_1_2 = 1
 R3758: - medcol3_14 = 0
 R3759: rb3_15_0_0 + rb3_15_1_0 = 1
 R3760: rb3_15_0_1 + rb3_15_1_1 = 1
 R3761: rb3_15_0_0 + rb3_15_0_1 = 1
 R3762: rb3_15_1_0 + rb3_15_1_1 = 1
 R3763: - medcol3_15 = 0
 R3764: a4c3_16_0_1_0 + a4c3_16_1_1_0 + a4c3_16_2_1_0 + a4c3_16_3_1_0 = 1
 R3765: a4c3_16_0_1_1 + a4c3_16_1_1_1 + a4c3_16_2_1_1 + a4c3_16_3_1_1 = 1
 R3766: a4c3_16_0_1_2 + a4c3_16_1_1_2 + a4c3_16_2_1_2 + a4c3_16_3_1_2 = 1
 R3767: a4c3_16_0_1_3 + a4c3_16_1_1_3 + a4c3_16_2_1_3 + a4c3_16_3_1_3 = 1
 R3768: a4c3_16_0_1_0 + a4c3_16_0_1_1 + a4c3_16_0_1_2 + a4c3_16_0_1_3 = 1
 R3769: a4c3_16_1_1_0 + a4c3_16_1_1_1 + a4c3_16_1_1_2 + a4c3_16_1_1_3 = 1
 R3770: a4c3_16_2_1_0 + a4c3_16_2_1_1 + a4c3_16_2_1_2 + a4c3_16_2_1_3 = 1
 R3771: a4c3_16_3_1_0 + a4c3_16_3_1_1 + a4c3_16_3_1_2 + a4c3_16_3_1_3 = 1
 R3772: med3a3_16_0 + med3a3_16_1 - medcol3_16 = 0
 R3773: a3c3_17_0_1_0 + a3c3_17_1_1_0 + a3c3_17_2_1_0 = 1
 R3774: a3c3_17_0_1_1 + a3c3_17_1_1_1 + a3c3_17_2_1_1 = 1
 R3775: a3c3_17_0_1_2 + a3c3_17_1_1_2 + a3c3_17_2_1_2 = 1
 R3776: a3c3_17_0_1_0 + a3c3_17_0_1_1 + a3c3_17_0_1_2 = 1
 R3777: a3c3_17_1_1_0 + a3c3_17_1_1_1 + a3c3_17_1_1_2 = 1
 R3778: a3c3_17_2_1_0 + a3c3_17_2_1_1 + a3c3_17_2_1_2 = 1
 R3779: med4a3_17_0 - medcol3_17 = 0
 R3780: a3c3_18_0_1_0 + a3c3_18_1_1_0 + a3c3_18_2_1_0 = 1
 R3781: a3c3_18_0_1_1 + a3c3_18_1_1_1 + a3c3_18_2_1_1 = 1
 R3782: a3c3_18_0_1_2 + a3c3_18_1_1_2 + a3c3_18_2_1_2 = 1
 R3783: a3c3_18_0_1_0 + a3c3_18_0_1_1 + a3c3_18_0_1_2 = 1
 R3784: a3c3_18_1_1_0 + a3c3_18_1_1_1 + a3c3_18_1_1_2 = 1
 R3785: a3c3_18_2_1_0 + a3c3_18_2_1_1 + a3c3_18_2_1_2 = 1
 R3786: med4a3_18_0 - medcol3_18 = 0
 R3787: a4c3_19_0_1_0 + a4c3_19_1_1_0 + a4c3_19_2_1_0 + a4c3_19_3_1_0 = 1
 R3788: a4c3_19_0_1_1 + a4c3_19_1_1_1 + a4c3_19_2_1_1 + a4c3_19_3_1_1 = 1
 R3789: a4c3_19_0_1_2 + a4c3_19_1_1_2 + a4c3_19_2_1_2 + a4c3_19_3_1_2 = 1
 R3790: a4c3_19_0_1_3 + a4c3_19_1_1_3 + a4c3_19_2_1_3 + a4c3_19_3_1_3 = 1
 R3791: a4c3_19_0_1_0 + a4c3_19_0_1_1 + a4c3_19_0_1_2 + a4c3_19_0_1_3 = 1
 R3792: a4c3_19_1_1_0 + a4c3_19_1_1_1 + a4c3_19_1_1_2 + a4c3_19_1_1_3 = 1
 R3793: a4c3_19_2_1_0 + a4c3_19_2_1_1 + a4c3_19_2_1_2 + a4c3_19_2_1_3 = 1
 R3794: a4c3_19_3_1_0 + a4c3_19_3_1_1 + a4c3_19_3_1_2 + a4c3_19_3_1_3 = 1
 R3795: med3a3_19_0 + med3a3_19_1 - medcol3_19 = 0
 R3796: a4c3_20_0_1_0 + a4c3_20_1_1_0 + a4c3_20_2_1_0 + a4c3_20_3_1_0 = 1
 R3797: a4c3_20_0_1_1 + a4c3_20_1_1_1 + a4c3_20_2_1_1 + a4c3_20_3_1_1 = 1
 R3798: a4c3_20_0_1_2 + a4c3_20_1_1_2 + a4c3_20_2_1_2 + a4c3_20_3_1_2 = 1
 R3799: a4c3_20_0_1_3 + a4c3_20_1_1_3 + a4c3_20_2_1_3 + a4c3_20_3_1_3 = 1
 R3800: a4c3_20_0_1_0 + a4c3_20_0_1_1 + a4c3_20_0_1_2 + a4c3_20_0_1_3 = 1
 R3801: a4c3_20_1_1_0 + a4c3_20_1_1_1 + a4c3_20_1_1_2 + a4c3_20_1_1_3 = 1
 R3802: a4c3_20_2_1_0 + a4c3_20_2_1_1 + a4c3_20_2_1_2 + a4c3_20_2_1_3 = 1
 R3803: a4c3_20_3_1_0 + a4c3_20_3_1_1 + a4c3_20_3_1_2 + a4c3_20_3_1_3 = 1
 R3804: med4a3_20_0 + med3a3_20_0 - medcol3_20 = 0
 R3805: a4c3_21_0_1_0 + a4c3_21_1_1_0 + a4c3_21_2_1_0 + a4c3_21_3_1_0 = 1
 R3806: a4c3_21_0_1_1 + a4c3_21_1_1_1 + a4c3_21_2_1_1 + a4c3_21_3_1_1 = 1
 R3807: a4c3_21_0_1_2 + a4c3_21_1_1_2 + a4c3_21_2_1_2 + a4c3_21_3_1_2 = 1
 R3808: a4c3_21_0_1_3 + a4c3_21_1_1_3 + a4c3_21_2_1_3 + a4c3_21_3_1_3 = 1
 R3809: a4c3_21_0_1_0 + a4c3_21_0_1_1 + a4c3_21_0_1_2 + a4c3_21_0_1_3 = 1
 R3810: a4c3_21_1_1_0 + a4c3_21_1_1_1 + a4c3_21_1_1_2 + a4c3_21_1_1_3 = 1
 R3811: a4c3_21_2_1_0 + a4c3_21_2_1_1 + a4c3_21_2_1_2 + a4c3_21_2_1_3 = 1
 R3812: a4c3_21_3_1_0 + a4c3_21_3_1_1 + a4c3_21_3_1_2 + a4c3_21_3_1_3 = 1
 R3813: med4a3_21_0 + med4a3_21_1 - medcol3_21 = 0
 R3814: a4c3_22_0_1_0 + a4c3_22_1_1_0 + a4c3_22_2_1_0 + a4c3_22_3_1_0 = 1
 R3815: a4c3_22_0_1_1 + a4c3_22_1_1_1 + a4c3_22_2_1_1 + a4c3_22_3_1_1 = 1
 R3816: a4c3_22_0_1_2 + a4c3_22_1_1_2 + a4c3_22_2_1_2 + a4c3_22_3_1_2 = 1
 R3817: a4c3_22_0_1_3 + a4c3_22_1_1_3 + a4c3_22_2_1_3 + a4c3_22_3_1_3 = 1
 R3818: a4c3_22_0_1_0 + a4c3_22_0_1_1 + a4c3_22_0_1_2 + a4c3_22_0_1_3 = 1
 R3819: a4c3_22_1_1_0 + a4c3_22_1_1_1 + a4c3_22_1_1_2 + a4c3_22_1_1_3 = 1
 R3820: a4c3_22_2_1_0 + a4c3_22_2_1_1 + a4c3_22_2_1_2 + a4c3_22_2_1_3 = 1
 R3821: a4c3_22_3_1_0 + a4c3_22_3_1_1 + a4c3_22_3_1_2 + a4c3_22_3_1_3 = 1
 R3822: - medcol3_22 = 0
 R3823: a4c3_23_0_1_0 + a4c3_23_1_1_0 + a4c3_23_2_1_0 + a4c3_23_3_1_0 = 1
 R3824: a4c3_23_0_1_1 + a4c3_23_1_1_1 + a4c3_23_2_1_1 + a4c3_23_3_1_1 = 1
 R3825: a4c3_23_0_1_2 + a4c3_23_1_1_2 + a4c3_23_2_1_2 + a4c3_23_3_1_2 = 1
 R3826: a4c3_23_0_1_3 + a4c3_23_1_1_3 + a4c3_23_2_1_3 + a4c3_23_3_1_3 = 1
 R3827: a4c3_23_0_1_0 + a4c3_23_0_1_1 + a4c3_23_0_1_2 + a4c3_23_0_1_3 = 1
 R3828: a4c3_23_1_1_0 + a4c3_23_1_1_1 + a4c3_23_1_1_2 + a4c3_23_1_1_3 = 1
 R3829: a4c3_23_2_1_0 + a4c3_23_2_1_1 + a4c3_23_2_1_2 + a4c3_23_2_1_3 = 1
 R3830: a4c3_23_3_1_0 + a4c3_23_3_1_1 + a4c3_23_3_1_2 + a4c3_23_3_1_3 = 1
 R3831: med3a3_23_0 - medcol3_23 = 0
 R3832: a4c3_24_0_1_0 + a4c3_24_1_1_0 + a4c3_24_2_1_0 + a4c3_24_3_1_0 = 1
 R3833: a4c3_24_0_1_1 + a4c3_24_1_1_1 + a4c3_24_2_1_1 + a4c3_24_3_1_1 = 1
 R3834: a4c3_24_0_1_2 + a4c3_24_1_1_2 + a4c3_24_2_1_2 + a4c3_24_3_1_2 = 1
 R3835: a4c3_24_0_1_3 + a4c3_24_1_1_3 + a4c3_24_2_1_3 + a4c3_24_3_1_3 = 1
 R3836: a4c3_24_0_1_0 + a4c3_24_0_1_1 + a4c3_24_0_1_2 + a4c3_24_0_1_3 = 1
 R3837: a4c3_24_1_1_0 + a4c3_24_1_1_1 + a4c3_24_1_1_2 + a4c3_24_1_1_3 = 1
 R3838: a4c3_24_2_1_0 + a4c3_24_2_1_1 + a4c3_24_2_1_2 + a4c3_24_2_1_3 = 1
 R3839: a4c3_24_3_1_0 + a4c3_24_3_1_1 + a4c3_24_3_1_2 + a4c3_24_3_1_3 = 1
 R3840: med4a3_24_0 + med4a3_24_1 - medcol3_24 = 0
 R3841: a4c3_25_0_1_0 + a4c3_25_1_1_0 + a4c3_25_2_1_0 + a4c3_25_3_1_0 = 1
 R3842: a4c3_25_0_1_1 + a4c3_25_1_1_1 + a4c3_25_2_1_1 + a4c3_25_3_1_1 = 1
 R3843: a4c3_25_0_1_2 + a4c3_25_1_1_2 + a4c3_25_2_1_2 + a4c3_25_3_1_2 = 1
 R3844: a4c3_25_0_1_3 + a4c3_25_1_1_3 + a4c3_25_2_1_3 + a4c3_25_3_1_3 = 1
 R3845: a4c3_25_0_1_0 + a4c3_25_0_1_1 + a4c3_25_0_1_2 + a4c3_25_0_1_3 = 1
 R3846: a4c3_25_1_1_0 + a4c3_25_1_1_1 + a4c3_25_1_1_2 + a4c3_25_1_1_3 = 1
 R3847: a4c3_25_2_1_0 + a4c3_25_2_1_1 + a4c3_25_2_1_2 + a4c3_25_2_1_3 = 1
 R3848: a4c3_25_3_1_0 + a4c3_25_3_1_1 + a4c3_25_3_1_2 + a4c3_25_3_1_3 = 1
 R3849: med4a3_25_0 + med4a3_25_1 - medcol3_25 = 0
 R3850: rb3_26_0_0 + rb3_26_1_0 = 1
 R3851: rb3_26_0_1 + rb3_26_1_1 = 1
 R3852: rb3_26_0_0 + rb3_26_0_1 = 1
 R3853: rb3_26_1_0 + rb3_26_1_1 = 1
 R3854: med3a3_26_0 - medcol3_26 = 0
 R3855: a3c3_27_0_1_0 + a3c3_27_1_1_0 + a3c3_27_2_1_0 = 1
 R3856: a3c3_27_0_1_1 + a3c3_27_1_1_1 + a3c3_27_2_1_1 = 1
 R3857: a3c3_27_0_1_2 + a3c3_27_1_1_2 + a3c3_27_2_1_2 = 1
 R3858: a3c3_27_0_1_0 + a3c3_27_0_1_1 + a3c3_27_0_1_2 = 1
 R3859: a3c3_27_1_1_0 + a3c3_27_1_1_1 + a3c3_27_1_1_2 = 1
 R3860: a3c3_27_2_1_0 + a3c3_27_2_1_1 + a3c3_27_2_1_2 = 1
 R3861: med4a3_27_0 - medcol3_27 = 0
 R3862: a4c3_28_0_1_0 + a4c3_28_1_1_0 + a4c3_28_2_1_0 + a4c3_28_3_1_0 = 1
 R3863: a4c3_28_0_1_1 + a4c3_28_1_1_1 + a4c3_28_2_1_1 + a4c3_28_3_1_1 = 1
 R3864: a4c3_28_0_1_2 + a4c3_28_1_1_2 + a4c3_28_2_1_2 + a4c3_28_3_1_2 = 1
 R3865: a4c3_28_0_1_3 + a4c3_28_1_1_3 + a4c3_28_2_1_3 + a4c3_28_3_1_3 = 1
 R3866: a4c3_28_0_1_0 + a4c3_28_0_1_1 + a4c3_28_0_1_2 + a4c3_28_0_1_3 = 1
 R3867: a4c3_28_1_1_0 + a4c3_28_1_1_1 + a4c3_28_1_1_2 + a4c3_28_1_1_3 = 1
 R3868: a4c3_28_2_1_0 + a4c3_28_2_1_1 + a4c3_28_2_1_2 + a4c3_28_2_1_3 = 1
 R3869: a4c3_28_3_1_0 + a4c3_28_3_1_1 + a4c3_28_3_1_2 + a4c3_28_3_1_3 = 1
 R3870: med3a3_28_0 - medcol3_28 = 0
 R3871: a4c3_29_0_1_0 + a4c3_29_1_1_0 + a4c3_29_2_1_0 + a4c3_29_3_1_0 = 1
 R3872: a4c3_29_0_1_1 + a4c3_29_1_1_1 + a4c3_29_2_1_1 + a4c3_29_3_1_1 = 1
 R3873: a4c3_29_0_1_2 + a4c3_29_1_1_2 + a4c3_29_2_1_2 + a4c3_29_3_1_2 = 1
 R3874: a4c3_29_0_1_3 + a4c3_29_1_1_3 + a4c3_29_2_1_3 + a4c3_29_3_1_3 = 1
 R3875: a4c3_29_0_1_0 + a4c3_29_0_1_1 + a4c3_29_0_1_2 + a4c3_29_0_1_3 = 1
 R3876: a4c3_29_1_1_0 + a4c3_29_1_1_1 + a4c3_29_1_1_2 + a4c3_29_1_1_3 = 1
 R3877: a4c3_29_2_1_0 + a4c3_29_2_1_1 + a4c3_29_2_1_2 + a4c3_29_2_1_3 = 1
 R3878: a4c3_29_3_1_0 + a4c3_29_3_1_1 + a4c3_29_3_1_2 + a4c3_29_3_1_3 = 1
 R3879: - medcol3_29 = 0
 R3880: a3c3_30_0_1_0 + a3c3_30_1_1_0 + a3c3_30_2_1_0 = 1
 R3881: a3c3_30_0_1_1 + a3c3_30_1_1_1 + a3c3_30_2_1_1 = 1
 R3882: a3c3_30_0_1_2 + a3c3_30_1_1_2 + a3c3_30_2_1_2 = 1
 R3883: a3c3_30_0_1_0 + a3c3_30_0_1_1 + a3c3_30_0_1_2 = 1
 R3884: a3c3_30_1_1_0 + a3c3_30_1_1_1 + a3c3_30_1_1_2 = 1
 R3885: a3c3_30_2_1_0 + a3c3_30_2_1_1 + a3c3_30_2_1_2 = 1
 R3886: - medcol3_30 = 0
 R3887: rb3_31_0_0 + rb3_31_1_0 = 1
 R3888: rb3_31_0_1 + rb3_31_1_1 = 1
 R3889: rb3_31_0_0 + rb3_31_0_1 = 1
 R3890: rb3_31_1_0 + rb3_31_1_1 = 1
 R3891: med3a3_31_0 - medcol3_31 = 0
 R3892: a3c3_32_0_1_0 + a3c3_32_1_1_0 + a3c3_32_2_1_0 = 1
 R3893: a3c3_32_0_1_1 + a3c3_32_1_1_1 + a3c3_32_2_1_1 = 1
 R3894: a3c3_32_0_1_2 + a3c3_32_1_1_2 + a3c3_32_2_1_2 = 1
 R3895: a3c3_32_0_1_0 + a3c3_32_0_1_1 + a3c3_32_0_1_2 = 1
 R3896: a3c3_32_1_1_0 + a3c3_32_1_1_1 + a3c3_32_1_1_2 = 1
 R3897: a3c3_32_2_1_0 + a3c3_32_2_1_1 + a3c3_32_2_1_2 = 1
 R3898: - medcol3_32 = 0
 R3899: rb3_33_0_0 + rb3_33_1_0 = 1
 R3900: rb3_33_0_1 + rb3_33_1_1 = 1
 R3901: rb3_33_0_0 + rb3_33_0_1 = 1
 R3902: rb3_33_1_0 + rb3_33_1_1 = 1
 R3903: - medcol3_33 = 0
 R3904: rb3_34_0_0 = 1
 R3905: rb3_34_0_0 = 1
 R3906: - medcol3_34 = 0
 R3907: - medcol4_0 = 0
 R3908: - medcol4_1 = 0
 R3909: - medcol4_2 = 0
 R3910: - medcol4_3 = 0
 R3911: rb4_4_0_0 + rb4_4_1_0 = 1
 R3912: rb4_4_0_1 + rb4_4_1_1 = 1
 R3913: rb4_4_0_0 + rb4_4_0_1 = 1
 R3914: rb4_4_1_0 + rb4_4_1_1 = 1
 R3915: - medcol4_4 = 0
 R3916: rb4_5_0_0 + rb4_5_1_0 = 1
 R3917: rb4_5_0_1 + rb4_5_1_1 = 1
 R3918: rb4_5_0_0 + rb4_5_0_1 = 1
 R3919: rb4_5_1_0 + rb4_5_1_1 = 1
 R3920: - medcol4_5 = 0
 R3921: rb4_6_0_0 + rb4_6_1_0 = 1
 R3922: rb4_6_0_1 + rb4_6_1_1 = 1
 R3923: rb4_6_0_0 + rb4_6_0_1 = 1
 R3924: rb4_6_1_0 + rb4_6_1_1 = 1
 R3925: - medcol4_6 = 0
 R3926: rb4_7_0_0 + rb4_7_1_0 = 1
 R3927: rb4_7_0_1 + rb4_7_1_1 = 1
 R3928: rb4_7_0_0 + rb4_7_0_1 = 1
 R3929: rb4_7_1_0 + rb4_7_1_1 = 1
 R3930: - medcol4_7 = 0
 R3931: rb4_8_0_0 + rb4_8_1_0 = 1
 R3932: rb4_8_0_1 + rb4_8_1_1 = 1
 R3933: rb4_8_0_0 + rb4_8_0_1 = 1
 R3934: rb4_8_1_0 + rb4_8_1_1 = 1
 R3935: - medcol4_8 = 0
 R3936: rb4_9_0_0 + rb4_9_1_0 = 1
 R3937: rb4_9_0_1 + rb4_9_1_1 = 1
 R3938: rb4_9_0_0 + rb4_9_0_1 = 1
 R3939: rb4_9_1_0 + rb4_9_1_1 = 1
 R3940: - medcol4_9 = 0
 R3941: rb4_10_0_0 + rb4_10_1_0 = 1
 R3942: rb4_10_0_1 + rb4_10_1_1 = 1
 R3943: rb4_10_0_0 + rb4_10_0_1 = 1
 R3944: rb4_10_1_0 + rb4_10_1_1 = 1
 R3945: - medcol4_10 = 0
 R3946: rb4_11_0_0 + rb4_11_1_0 = 1
 R3947: rb4_11_0_1 + rb4_11_1_1 = 1
 R3948: rb4_11_0_0 + rb4_11_0_1 = 1
 R3949: rb4_11_1_0 + rb4_11_1_1 = 1
 R3950: - medcol4_11 = 0
 R3951: rb4_12_0_0 + rb4_12_1_0 = 1
 R3952: rb4_12_0_1 + rb4_12_1_1 = 1
 R3953: rb4_12_0_0 + rb4_12_0_1 = 1
 R3954: rb4_12_1_0 + rb4_12_1_1 = 1
 R3955: - medcol4_12 = 0
 R3956: rb4_13_0_0 + rb4_13_1_0 = 1
 R3957: rb4_13_0_1 + rb4_13_1_1 = 1
 R3958: rb4_13_0_0 + rb4_13_0_1 = 1
 R3959: rb4_13_1_0 + rb4_13_1_1 = 1
 R3960: - medcol4_13 = 0
 R3961: rb4_14_0_0 + rb4_14_1_0 = 1
 R3962: rb4_14_0_1 + rb4_14_1_1 = 1
 R3963: rb4_14_0_0 + rb4_14_0_1 = 1
 R3964: rb4_14_1_0 + rb4_14_1_1 = 1
 R3965: - medcol4_14 = 0
 R3966: rb4_15_0_0 + rb4_15_1_0 = 1
 R3967: rb4_15_0_1 + rb4_15_1_1 = 1
 R3968: rb4_15_0_0 + rb4_15_0_1 = 1
 R3969: rb4_15_1_0 + rb4_15_1_1 = 1
 R3970: - medcol4_15 = 0
 R3971: rb4_16_0_0 + rb4_16_1_0 = 1
 R3972: rb4_16_0_1 + rb4_16_1_1 = 1
 R3973: rb4_16_0_0 + rb4_16_0_1 = 1
 R3974: rb4_16_1_0 + rb4_16_1_1 = 1
 R3975: med4a4_16_0 - medcol4_16 = 0
 R3976: rb4_17_0_0 + rb4_17_1_0 = 1
 R3977: rb4_17_0_1 + rb4_17_1_1 = 1
 R3978: rb4_17_0_0 + rb4_17_0_1 = 1
 R3979: rb4_17_1_0 + rb4_17_1_1 = 1
 R3980: med3a4_17_0 - medcol4_17 = 0
 R3981: rb4_18_0_0 + rb4_18_1_0 = 1
 R3982: rb4_18_0_1 + rb4_18_1_1 = 1
 R3983: rb4_18_0_0 + rb4_18_0_1 = 1
 R3984: rb4_18_1_0 + rb4_18_1_1 = 1
 R3985: med3a4_18_0 - medcol4_18 = 0
 R3986: rb4_19_0_0 + rb4_19_1_0 = 1
 R3987: rb4_19_0_1 + rb4_19_1_1 = 1
 R3988: rb4_19_0_0 + rb4_19_0_1 = 1
 R3989: rb4_19_1_0 + rb4_19_1_1 = 1
 R3990: med4a4_19_0 - medcol4_19 = 0
 R3991: rb4_20_0_0 + rb4_20_1_0 = 1
 R3992: rb4_20_0_1 + rb4_20_1_1 = 1
 R3993: rb4_20_0_0 + rb4_20_0_1 = 1
 R3994: rb4_20_1_0 + rb4_20_1_1 = 1
 R3995: med4a4_20_0 - medcol4_20 = 0
 R3996: rb4_21_0_0 + rb4_21_1_0 = 1
 R3997: rb4_21_0_1 + rb4_21_1_1 = 1
 R3998: rb4_21_0_0 + rb4_21_0_1 = 1
 R3999: rb4_21_1_0 + rb4_21_1_1 = 1
 R4000: med4a4_21_0 - medcol4_21 = 0
 R4001: rb4_22_0_0 + rb4_22_1_0 = 1
 R4002: rb4_22_0_1 + rb4_22_1_1 = 1
 R4003: rb4_22_0_0 + rb4_22_0_1 = 1
 R4004: rb4_22_1_0 + rb4_22_1_1 = 1
 R4005: med4a4_22_0 - medcol4_22 = 0
 R4006: rb4_23_0_0 + rb4_23_1_0 = 1
 R4007: rb4_23_0_1 + rb4_23_1_1 = 1
 R4008: rb4_23_0_0 + rb4_23_0_1 = 1
 R4009: rb4_23_1_0 + rb4_23_1_1 = 1
 R4010: med4a4_23_0 - medcol4_23 = 0
 R4011: rb4_24_0_0 + rb4_24_1_0 = 1
 R4012: rb4_24_0_1 + rb4_24_1_1 = 1
 R4013: rb4_24_0_0 + rb4_24_0_1 = 1
 R4014: rb4_24_1_0 + rb4_24_1_1 = 1
 R4015: med4a4_24_0 - medcol4_24 = 0
 R4016: rb4_25_0_0 + rb4_25_1_0 = 1
 R4017: rb4_25_0_1 + rb4_25_1_1 = 1
 R4018: rb4_25_0_0 + rb4_25_0_1 = 1
 R4019: rb4_25_1_0 + rb4_25_1_1 = 1
 R4020: med4a4_25_0 - medcol4_25 = 0
 R4021: rb4_26_0_0 + rb4_26_1_0 = 1
 R4022: rb4_26_0_1 + rb4_26_1_1 = 1
 R4023: rb4_26_0_0 + rb4_26_0_1 = 1
 R4024: rb4_26_1_0 + rb4_26_1_1 = 1
 R4025: - medcol4_26 = 0
 R4026: rb4_27_0_0 + rb4_27_1_0 = 1
 R4027: rb4_27_0_1 + rb4_27_1_1 = 1
 R4028: rb4_27_0_0 + rb4_27_0_1 = 1
 R4029: rb4_27_1_0 + rb4_27_1_1 = 1
 R4030: med3a4_27_0 - medcol4_27 = 0
 R4031: rb4_28_0_0 + rb4_28_1_0 = 1
 R4032: rb4_28_0_1 + rb4_28_1_1 = 1
 R4033: rb4_28_0_0 + rb4_28_0_1 = 1
 R4034: rb4_28_1_0 + rb4_28_1_1 = 1
 R4035: med4a4_28_0 - medcol4_28 = 0
 R4036: rb4_29_0_0 + rb4_29_1_0 = 1
 R4037: rb4_29_0_1 + rb4_29_1_1 = 1
 R4038: rb4_29_0_0 + rb4_29_0_1 = 1
 R4039: rb4_29_1_0 + rb4_29_1_1 = 1
 R4040: med4a4_29_0 - medcol4_29 = 0
 R4041: rb4_30_0_0 + rb4_30_1_0 = 1
 R4042: rb4_30_0_1 + rb4_30_1_1 = 1
 R4043: rb4_30_0_0 + rb4_30_0_1 = 1
 R4044: rb4_30_1_0 + rb4_30_1_1 = 1
 R4045: med3a4_30_0 - medcol4_30 = 0
 R4046: rb4_31_0_0 + rb4_31_1_0 = 1
 R4047: rb4_31_0_1 + rb4_31_1_1 = 1
 R4048: rb4_31_0_0 + rb4_31_0_1 = 1
 R4049: rb4_31_1_0 + rb4_31_1_1 = 1
 R4050: - medcol4_31 = 0
 R4051: rb4_32_0_0 + rb4_32_1_0 = 1
 R4052: rb4_32_0_1 + rb4_32_1_1 = 1
 R4053: rb4_32_0_0 + rb4_32_0_1 = 1
 R4054: rb4_32_1_0 + rb4_32_1_1 = 1
 R4055: med3a4_32_0 - medcol4_32 = 0
 R4056: rb4_33_0_0 + rb4_33_1_0 = 1
 R4057: rb4_33_0_1 + rb4_33_1_1 = 1
 R4058: rb4_33_0_0 + rb4_33_0_1 = 1
 R4059: rb4_33_1_0 + rb4_33_1_1 = 1
 R4060: - medcol4_33 = 0
 R4061: rb4_34_0_0 = 1
 R4062: rb4_34_0_0 = 1
 R4063: - medcol4_34 = 0
 qc0: - p1_4_0 + [ p0_4_0 * rb0_4_0_0 ] = 0
 qc1: - p1_5_0 + [ p0_5_0 * rb0_5_0_0 + p0_5_1 * rb0_5_1_0 ] = 0
 qc2: - p1_5_1 + [ p0_5_0 * rb0_5_0_1 + p0_5_1 * rb0_5_1_1 ] = 0
 qc3: - p1_6_0 + [ p0_6_0 * rb0_6_0_0 + p0_6_1 * rb0_6_1_0
   + p0_6_2 * rb0_6_2_0 ] = 0
 qc4: - p1_6_1 + [ p0_6_0 * rb0_6_0_1 + p0_6_1 * rb0_6_1_1
   + p0_6_2 * rb0_6_2_1 ] = 0
 qc5: - p1_6_2 + [ p0_6_0 * rb0_6_0_2 + p0_6_1 * rb0_6_1_2
   + p0_6_2 * rb0_6_2_2 ] = 0
 qc6: - p1_7_0 + [ p0_7_0 * rb0_7_0_0 + p0_7_1 * rb0_7_1_0
   + p0_7_2 * rb0_7_2_0 + p0_7_3 * rb0_7_3_0 ] = 0
 qc7: - p1_7_1 + [ p0_7_0 * rb0_7_0_1 + p0_7_1 * rb0_7_1_1
   + p0_7_2 * rb0_7_2_1 + p0_7_3 * rb0_7_3_1 ] = 0
 qc8: - p1_7_2 + [ p0_7_0 * rb0_7_0_2 + p0_7_1 * rb0_7_1_2
   + p0_7_2 * rb0_7_2_2 + p0_7_3 * rb0_7_3_2 ] = 0
 qc9: - p1_7_3 + [ p0_7_0 * rb0_7_0_3 + p0_7_1 * rb0_7_1_3
   + p0_7_2 * rb0_7_2_3 + p0_7_3 * rb0_7_3_3 ] = 0
 qc10: - p1_8_0 + [ p0_8_0 * rb0_8_0_0 + p0_8_1 * rb0_8_1_0
   + p0_8_2 * rb0_8_2_0 + p0_8_3 * rb0_8_3_0 + p0_8_4 * rb0_8_4_0 ] = 0
 qc11: - p1_8_1 + [ p0_8_0 * rb0_8_0_1 + p0_8_1 * rb0_8_1_1
   + p0_8_2 * rb0_8_2_1 + p0_8_3 * rb0_8_3_1 + p0_8_4 * rb0_8_4_1 ] = 0
 qc12: - p1_8_2 + [ p0_8_0 * rb0_8_0_2 + p0_8_1 * rb0_8_1_2
   + p0_8_2 * rb0_8_2_2 + p0_8_3 * rb0_8_3_2 + p0_8_4 * rb0_8_4_2 ] = 0
 qc13: - p1_8_3 + [ p0_8_0 * rb0_8_0_3 + p0_8_1 * rb0_8_1_3
   + p0_8_2 * rb0_8_2_3 + p0_8_3 * rb0_8_3_3 + p0_8_4 * rb0_8_4_3 ] = 0
 qc14: - p1_8_4 + [ p0_8_0 * rb0_8_0_4 + p0_8_1 * rb0_8_1_4
   + p0_8_2 * rb0_8_2_4 + p0_8_3 * rb0_8_3_4 + p0_8_4 * rb0_8_4_4 ] = 0
 qc15: pf1_9_1_0 + [ - p0_9_0 * f0_9_0_1_0 - p0_9_1 * f0_9_1_1_0
   - p0_9_2 * f0_9_2_1_0 - p0_9_3 * f0_9_3_1_0 - p0_9_4 * f0_9_4_1_0
   - p0_9_5 * f0_9_5_1_0 ] = 0
 qc16: pf1_9_1_1 + [ - p0_9_0 * f0_9_0_1_1 - p0_9_1 * f0_9_1_1_1
   - p0_9_2 * f0_9_2_1_1 - p0_9_3 * f0_9_3_1_1 - p0_9_4 * f0_9_4_1_1
   - p0_9_5 * f0_9_5_1_1 ] = 0
 qc17: pf1_9_1_2 + [ - p0_9_0 * f0_9_0_1_2 - p0_9_1 * f0_9_1_1_2
   - p0_9_2 * f0_9_2_1_2 - p0_9_3 * f0_9_3_1_2 - p0_9_4 * f0_9_4_1_2
   - p0_9_5 * f0_9_5_1_2 ] = 0
 qc18: pf1_9_2_0 + [ - p0_9_0 * f0_9_0_2_0 - p0_9_1 * f0_9_1_2_0
   - p0_9_2 * f0_9_2_2_0 - p0_9_3 * f0_9_3_2_0 - p0_9_4 * f0_9_4_2_0
   - p0_9_5 * f0_9_5_2_0 ] = 0
 qc19: pf1_9_2_1 + [ - p0_9_0 * f0_9_0_2_1 - p0_9_1 * f0_9_1_2_1
   - p0_9_2 * f0_9_2_2_1 - p0_9_3 * f0_9_3_2_1 - p0_9_4 * f0_9_4_2_1
   - p0_9_5 * f0_9_5_2_1 ] = 0
 qc20: pf1_9_2_2 + [ - p0_9_0 * f0_9_0_2_2 - p0_9_1 * f0_9_1_2_2
   - p0_9_2 * f0_9_2_2_2 - p0_9_3 * f0_9_3_2_2 - p0_9_4 * f0_9_4_2_2
   - p0_9_5 * f0_9_5_2_2 ] = 0
 qc21: qft1_9_0_0 + [ - pf1_9_1_0 * pf1_9_1_1 ] = 0
 qc22: qft1_9_0_1 + [ - pf1_9_1_0 * pf1_9_1_2 ] = 0
 qc23: qft1_9_0_2 + [ - pf1_9_1_1 * pf1_9_1_2 ] = 0
 qc24: p1_9_0 - pf1_9_1_0 - pf1_9_1_1 - pf1_9_1_2 + 2 qft1_9_0_0
   + 2 qft1_9_0_1 + 2 qft1_9_0_2 + [ - 4 pf1_9_1_2 * qft1_9_0_0 ] = 0
 qc25: p1_8_5 - qft1_9_0_0 - qft1_9_0_1 - qft1_9_0_2 + [
   2 pf1_9_1_2 * qft1_9_0_0 ] = 0
 qc26: qft1_9_1_0 + [ - pf1_9_2_0 * pf1_9_2_1 ] = 0
 qc27: qft1_9_1_1 + [ - pf1_9_2_0 * pf1_9_2_2 ] = 0
 qc28: qft1_9_1_2 + [ - pf1_9_2_1 * pf1_9_2_2 ] = 0
 qc29: p1_9_1 - pf1_9_2_0 - pf1_9_2_1 - pf1_9_2_2 + 2 qft1_9_1_0
   + 2 qft1_9_1_1 + 2 qft1_9_1_2 + [ - 4 pf1_9_2_2 * qft1_9_1_0 ] = 0
 qc30: p1_8_6 - qft1_9_1_0 - qft1_9_1_1 - qft1_9_1_2 + [
   2 pf1_9_2_2 * qft1_9_1_0 ] = 0
 qc31: - p1_10_0 + [ p0_10_0 * rb0_10_0_0 + p0_10_1 * rb0_10_1_0
   + p0_10_2 * rb0_10_2_0 + p0_10_3 * rb0_10_3_0 + p0_10_4 * rb0_10_4_0
   + p0_10_5 * rb0_10_5_0 + p0_10_6 * rb0_10_6_0 ] = 0
 qc32: pf1_10_1_0 + [ - p0_10_0 * f0_10_0_1_0 - p0_10_1 * f0_10_1_1_0
   - p0_10_2 * f0_10_2_1_0 - p0_10_3 * f0_10_3_1_0 - p0_10_4 * f0_10_4_1_0
   - p0_10_5 * f0_10_5_1_0 - p0_10_6 * f0_10_6_1_0 ] = 0
 qc33: pf1_10_1_1 + [ - p0_10_0 * f0_10_0_1_1 - p0_10_1 * f0_10_1_1_1
   - p0_10_2 * f0_10_2_1_1 - p0_10_3 * f0_10_3_1_1 - p0_10_4 * f0_10_4_1_1
   - p0_10_5 * f0_10_5_1_1 - p0_10_6 * f0_10_6_1_1 ] = 0
 qc34: pf1_10_1_2 + [ - p0_10_0 * f0_10_0_1_2 - p0_10_1 * f0_10_1_1_2
   - p0_10_2 * f0_10_2_1_2 - p0_10_3 * f0_10_3_1_2 - p0_10_4 * f0_10_4_1_2
   - p0_10_5 * f0_10_5_1_2 - p0_10_6 * f0_10_6_1_2 ] = 0
 qc35: pf1_10_2_0 + [ - p0_10_0 * f0_10_0_2_0 - p0_10_1 * f0_10_1_2_0
   - p0_10_2 * f0_10_2_2_0 - p0_10_3 * f0_10_3_2_0 - p0_10_4 * f0_10_4_2_0
   - p0_10_5 * f0_10_5_2_0 - p0_10_6 * f0_10_6_2_0 ] = 0
 qc36: pf1_10_2_1 + [ - p0_10_0 * f0_10_0_2_1 - p0_10_1 * f0_10_1_2_1
   - p0_10_2 * f0_10_2_2_1 - p0_10_3 * f0_10_3_2_1 - p0_10_4 * f0_10_4_2_1
   - p0_10_5 * f0_10_5_2_1 - p0_10_6 * f0_10_6_2_1 ] = 0
 qc37: pf1_10_2_2 + [ - p0_10_0 * f0_10_0_2_2 - p0_10_1 * f0_10_1_2_2
   - p0_10_2 * f0_10_2_2_2 - p0_10_3 * f0_10_3_2_2 - p0_10_4 * f0_10_4_2_2
   - p0_10_5 * f0_10_5_2_2 - p0_10_6 * f0_10_6_2_2 ] = 0
 qc38: qft1_10_0_0 + [ - pf1_10_1_0 * pf1_10_1_1 ] = 0
 qc39: qft1_10_0_1 + [ - pf1_10_1_0 * pf1_10_1_2 ] = 0
 qc40: qft1_10_0_2 + [ - pf1_10_1_1 * pf1_10_1_2 ] = 0
 qc41: p1_10_1 - pf1_10_1_0 - pf1_10_1_1 - pf1_10_1_2 + 2 qft1_10_0_0
   + 2 qft1_10_0_1 + 2 qft1_10_0_2 + [ - 4 pf1_10_1_2 * qft1_10_0_0 ] = 0
 qc42: p1_9_2 - qft1_10_0_0 - qft1_10_0_1 - qft1_10_0_2 + [
   2 pf1_10_1_2 * qft1_10_0_0 ] = 0
 qc43: qft1_10_1_0 + [ - pf1_10_2_0 * pf1_10_2_1 ] = 0
 qc44: qft1_10_1_1 + [ - pf1_10_2_0 * pf1_10_2_2 ] = 0
 qc45: qft1_10_1_2 + [ - pf1_10_2_1 * pf1_10_2_2 ] = 0
 qc46: p1_10_2 - pf1_10_2_0 - pf1_10_2_1 - pf1_10_2_2 + 2 qft1_10_1_0
   + 2 qft1_10_1_1 + 2 qft1_10_1_2 + [ - 4 pf1_10_2_2 * qft1_10_1_0 ] = 0
 qc47: p1_9_3 - qft1_10_1_0 - qft1_10_1_1 - qft1_10_1_2 + [
   2 pf1_10_2_2 * qft1_10_1_0 ] = 0
 qc48: pf1_11_1_0 + [ - p0_11_0 * f0_11_0_1_0 - p0_11_1 * f0_11_1_1_0
   - p0_11_2 * f0_11_2_1_0 - p0_11_3 * f0_11_3_1_0 - p0_11_4 * f0_11_4_1_0
   - p0_11_5 * f0_11_5_1_0 - p0_11_6 * f0_11_6_1_0 - p0_11_7 * f0_11_7_1_0
   ] = 0
 qc49: pf1_11_1_1 + [ - p0_11_0 * f0_11_0_1_1 - p0_11_1 * f0_11_1_1_1
   - p0_11_2 * f0_11_2_1_1 - p0_11_3 * f0_11_3_1_1 - p0_11_4 * f0_11_4_1_1
   - p0_11_5 * f0_11_5_1_1 - p0_11_6 * f0_11_6_1_1 - p0_11_7 * f0_11_7_1_1
   ] = 0
 qc50: pf1_11_1_2 + [ - p0_11_0 * f0_11_0_1_2 - p0_11_1 * f0_11_1_1_2
   - p0_11_2 * f0_11_2_1_2 - p0_11_3 * f0_11_3_1_2 - p0_11_4 * f0_11_4_1_2
   - p0_11_5 * f0_11_5_1_2 - p0_11_6 * f0_11_6_1_2 - p0_11_7 * f0_11_7_1_2
   ] = 0
 qc51: pf1_11_2_0 + [ - p0_11_0 * f0_11_0_2_0 - p0_11_1 * f0_11_1_2_0
   - p0_11_2 * f0_11_2_2_0 - p0_11_3 * f0_11_3_2_0 - p0_11_4 * f0_11_4_2_0
   - p0_11_5 * f0_11_5_2_0 - p0_11_6 * f0_11_6_2_0 - p0_11_7 * f0_11_7_2_0
   ] = 0
 qc52: pf1_11_2_1 + [ - p0_11_0 * f0_11_0_2_1 - p0_11_1 * f0_11_1_2_1
   - p0_11_2 * f0_11_2_2_1 - p0_11_3 * f0_11_3_2_1 - p0_11_4 * f0_11_4_2_1
   - p0_11_5 * f0_11_5_2_1 - p0_11_6 * f0_11_6_2_1 - p0_11_7 * f0_11_7_2_1
   ] = 0
 qc53: pf1_11_2_2 + [ - p0_11_0 * f0_11_0_2_2 - p0_11_1 * f0_11_1_2_2
   - p0_11_2 * f0_11_2_2_2 - p0_11_3 * f0_11_3_2_2 - p0_11_4 * f0_11_4_2_2
   - p0_11_5 * f0_11_5_2_2 - p0_11_6 * f0_11_6_2_2 - p0_11_7 * f0_11_7_2_2
   ] = 0
 qc54: qft1_11_0_0 + [ - pf1_11_1_0 * pf1_11_1_1 ] = 0
 qc55: qft1_11_0_1 + [ - pf1_11_1_0 * pf1_11_1_2 ] = 0
 qc56: qft1_11_0_2 + [ - pf1_11_1_1 * pf1_11_1_2 ] = 0
 qc57: p1_11_0 - pf1_11_1_0 - pf1_11_1_1 - pf1_11_1_2 + 2 qft1_11_0_0
   + 2 qft1_11_0_1 + 2 qft1_11_0_2 + [ - 4 pf1_11_1_2 * qft1_11_0_0 ] = 0
 qc58: p1_10_3 - qft1_11_0_0 - qft1_11_0_1 - qft1_11_0_2 + [
   2 pf1_11_1_2 * qft1_11_0_0 ] = 0
 qc59: qft1_11_1_0 + [ - pf1_11_2_0 * pf1_11_2_1 ] = 0
 qc60: qft1_11_1_1 + [ - pf1_11_2_0 * pf1_11_2_2 ] = 0
 qc61: qft1_11_1_2 + [ - pf1_11_2_1 * pf1_11_2_2 ] = 0
 qc62: p1_11_1 - pf1_11_2_0 - pf1_11_2_1 - pf1_11_2_2 + 2 qft1_11_1_0
   + 2 qft1_11_1_1 + 2 qft1_11_1_2 + [ - 4 pf1_11_2_2 * qft1_11_1_0 ] = 0
 qc63: p1_10_4 - qft1_11_1_0 - qft1_11_1_1 - qft1_11_1_2 + [
   2 pf1_11_2_2 * qft1_11_1_0 ] = 0
 qc64: ph1_11_1_0 + [ - p0_11_0 * h0_11_0_1_0 - p0_11_1 * h0_11_1_1_0
   - p0_11_2 * h0_11_2_1_0 - p0_11_3 * h0_11_3_1_0 - p0_11_4 * h0_11_4_1_0
   - p0_11_5 * h0_11_5_1_0 - p0_11_6 * h0_11_6_1_0 - p0_11_7 * h0_11_7_1_0
   ] = 0
 qc65: ph1_11_1_1 + [ - p0_11_0 * h0_11_0_1_1 - p0_11_1 * h0_11_1_1_1
   - p0_11_2 * h0_11_2_1_1 - p0_11_3 * h0_11_3_1_1 - p0_11_4 * h0_11_4_1_1
   - p0_11_5 * h0_11_5_1_1 - p0_11_6 * h0_11_6_1_1 - p0_11_7 * h0_11_7_1_1
   ] = 0
 qc66: p1_11_2 - ph1_11_1_0 - ph1_11_1_1 + [ 2 ph1_11_1_0 * ph1_11_1_1 ]
   = 0
 qc67: p1_10_5 + [ - ph1_11_1_0 * ph1_11_1_1 ] = 0
 qc68: pf1_12_1_0 + [ - p0_12_0 * f0_12_0_1_0 - p0_12_1 * f0_12_1_1_0
   - p0_12_2 * f0_12_2_1_0 - p0_12_3 * f0_12_3_1_0 - p0_12_4 * f0_12_4_1_0
   - p0_12_5 * f0_12_5_1_0 - p0_12_6 * f0_12_6_1_0 - p0_12_7 * f0_12_7_1_0
   - p0_12_8 * f0_12_8_1_0 ] = 0
 qc69: pf1_12_1_1 + [ - p0_12_0 * f0_12_0_1_1 - p0_12_1 * f0_12_1_1_1
   - p0_12_2 * f0_12_2_1_1 - p0_12_3 * f0_12_3_1_1 - p0_12_4 * f0_12_4_1_1
   - p0_12_5 * f0_12_5_1_1 - p0_12_6 * f0_12_6_1_1 - p0_12_7 * f0_12_7_1_1
   - p0_12_8 * f0_12_8_1_1 ] = 0
 qc70: pf1_12_1_2 + [ - p0_12_0 * f0_12_0_1_2 - p0_12_1 * f0_12_1_1_2
   - p0_12_2 * f0_12_2_1_2 - p0_12_3 * f0_12_3_1_2 - p0_12_4 * f0_12_4_1_2
   - p0_12_5 * f0_12_5_1_2 - p0_12_6 * f0_12_6_1_2 - p0_12_7 * f0_12_7_1_2
   - p0_12_8 * f0_12_8_1_2 ] = 0
 qc71: pf1_12_2_0 + [ - p0_12_0 * f0_12_0_2_0 - p0_12_1 * f0_12_1_2_0
   - p0_12_2 * f0_12_2_2_0 - p0_12_3 * f0_12_3_2_0 - p0_12_4 * f0_12_4_2_0
   - p0_12_5 * f0_12_5_2_0 - p0_12_6 * f0_12_6_2_0 - p0_12_7 * f0_12_7_2_0
   - p0_12_8 * f0_12_8_2_0 ] = 0
 qc72: pf1_12_2_1 + [ - p0_12_0 * f0_12_0_2_1 - p0_12_1 * f0_12_1_2_1
   - p0_12_2 * f0_12_2_2_1 - p0_12_3 * f0_12_3_2_1 - p0_12_4 * f0_12_4_2_1
   - p0_12_5 * f0_12_5_2_1 - p0_12_6 * f0_12_6_2_1 - p0_12_7 * f0_12_7_2_1
   - p0_12_8 * f0_12_8_2_1 ] = 0
 qc73: pf1_12_2_2 + [ - p0_12_0 * f0_12_0_2_2 - p0_12_1 * f0_12_1_2_2
   - p0_12_2 * f0_12_2_2_2 - p0_12_3 * f0_12_3_2_2 - p0_12_4 * f0_12_4_2_2
   - p0_12_5 * f0_12_5_2_2 - p0_12_6 * f0_12_6_2_2 - p0_12_7 * f0_12_7_2_2
   - p0_12_8 * f0_12_8_2_2 ] = 0
 qc74: pf1_12_3_0 + [ - p0_12_0 * f0_12_0_3_0 - p0_12_1 * f0_12_1_3_0
   - p0_12_2 * f0_12_2_3_0 - p0_12_3 * f0_12_3_3_0 - p0_12_4 * f0_12_4_3_0
   - p0_12_5 * f0_12_5_3_0 - p0_12_6 * f0_12_6_3_0 - p0_12_7 * f0_12_7_3_0
   - p0_12_8 * f0_12_8_3_0 ] = 0
 qc75: pf1_12_3_1 + [ - p0_12_0 * f0_12_0_3_1 - p0_12_1 * f0_12_1_3_1
   - p0_12_2 * f0_12_2_3_1 - p0_12_3 * f0_12_3_3_1 - p0_12_4 * f0_12_4_3_1
   - p0_12_5 * f0_12_5_3_1 - p0_12_6 * f0_12_6_3_1 - p0_12_7 * f0_12_7_3_1
   - p0_12_8 * f0_12_8_3_1 ] = 0
 qc76: pf1_12_3_2 + [ - p0_12_0 * f0_12_0_3_2 - p0_12_1 * f0_12_1_3_2
   - p0_12_2 * f0_12_2_3_2 - p0_12_3 * f0_12_3_3_2 - p0_12_4 * f0_12_4_3_2
   - p0_12_5 * f0_12_5_3_2 - p0_12_6 * f0_12_6_3_2 - p0_12_7 * f0_12_7_3_2
   - p0_12_8 * f0_12_8_3_2 ] = 0
 qc77: qft1_12_0_0 + [ - pf1_12_1_0 * pf1_12_1_1 ] = 0
 qc78: qft1_12_0_1 + [ - pf1_12_1_0 * pf1_12_1_2 ] = 0
 qc79: qft1_12_0_2 + [ - pf1_12_1_1 * pf1_12_1_2 ] = 0
 qc80: p1_12_0 - pf1_12_1_0 - pf1_12_1_1 - pf1_12_1_2 + 2 qft1_12_0_0
   + 2 qft1_12_0_1 + 2 qft1_12_0_2 + [ - 4 pf1_12_1_2 * qft1_12_0_0 ] = 0
 qc81: p1_11_3 - qft1_12_0_0 - qft1_12_0_1 - qft1_12_0_2 + [
   2 pf1_12_1_2 * qft1_12_0_0 ] = 0
 qc82: qft1_12_1_0 + [ - pf1_12_2_0 * pf1_12_2_1 ] = 0
 qc83: qft1_12_1_1 + [ - pf1_12_2_0 * pf1_12_2_2 ] = 0
 qc84: qft1_12_1_2 + [ - pf1_12_2_1 * pf1_12_2_2 ] = 0
 qc85: p1_12_1 - pf1_12_2_0 - pf1_12_2_1 - pf1_12_2_2 + 2 qft1_12_1_0
   + 2 qft1_12_1_1 + 2 qft1_12_1_2 + [ - 4 pf1_12_2_2 * qft1_12_1_0 ] = 0
 qc86: p1_11_4 - qft1_12_1_0 - qft1_12_1_1 - qft1_12_1_2 + [
   2 pf1_12_2_2 * qft1_12_1_0 ] = 0
 qc87: qft1_12_2_0 + [ - pf1_12_3_0 * pf1_12_3_1 ] = 0
 qc88: qft1_12_2_1 + [ - pf1_12_3_0 * pf1_12_3_2 ] = 0
 qc89: qft1_12_2_2 + [ - pf1_12_3_1 * pf1_12_3_2 ] = 0
 qc90: p1_12_2 - pf1_12_3_0 - pf1_12_3_1 - pf1_12_3_2 + 2 qft1_12_2_0
   + 2 qft1_12_2_1 + 2 qft1_12_2_2 + [ - 4 pf1_12_3_2 * qft1_12_2_0 ] = 0
 qc91: p1_11_5 - qft1_12_2_0 - qft1_12_2_1 - qft1_12_2_2 + [
   2 pf1_12_3_2 * qft1_12_2_0 ] = 0
 qc92: - p1_13_0 + [ p0_13_0 * rb0_13_0_0 + p0_13_1 * rb0_13_1_0
   + p0_13_2 * rb0_13_2_0 + p0_13_3 * rb0_13_3_0 + p0_13_4 * rb0_13_4_0
   + p0_13_5 * rb0_13_5_0 + p0_13_6 * rb0_13_6_0 + p0_13_7 * rb0_13_7_0
   + p0_13_8 * rb0_13_8_0 + p0_13_9 * rb0_13_9_0 ] = 0
 qc93: pf1_13_1_0 + [ - p0_13_0 * f0_13_0_1_0 - p0_13_1 * f0_13_1_1_0
   - p0_13_2 * f0_13_2_1_0 - p0_13_3 * f0_13_3_1_0 - p0_13_4 * f0_13_4_1_0
   - p0_13_5 * f0_13_5_1_0 - p0_13_6 * f0_13_6_1_0 - p0_13_7 * f0_13_7_1_0
   - p0_13_8 * f0_13_8_1_0 - p0_13_9 * f0_13_9_1_0 ] = 0
 qc94: pf1_13_1_1 + [ - p0_13_0 * f0_13_0_1_1 - p0_13_1 * f0_13_1_1_1
   - p0_13_2 * f0_13_2_1_1 - p0_13_3 * f0_13_3_1_1 - p0_13_4 * f0_13_4_1_1
   - p0_13_5 * f0_13_5_1_1 - p0_13_6 * f0_13_6_1_1 - p0_13_7 * f0_13_7_1_1
   - p0_13_8 * f0_13_8_1_1 - p0_13_9 * f0_13_9_1_1 ] = 0
 qc95: pf1_13_1_2 + [ - p0_13_0 * f0_13_0_1_2 - p0_13_1 * f0_13_1_1_2
   - p0_13_2 * f0_13_2_1_2 - p0_13_3 * f0_13_3_1_2 - p0_13_4 * f0_13_4_1_2
   - p0_13_5 * f0_13_5_1_2 - p0_13_6 * f0_13_6_1_2 - p0_13_7 * f0_13_7_1_2
   - p0_13_8 * f0_13_8_1_2 - p0_13_9 * f0_13_9_1_2 ] = 0
 qc96: pf1_13_2_0 + [ - p0_13_0 * f0_13_0_2_0 - p0_13_1 * f0_13_1_2_0
   - p0_13_2 * f0_13_2_2_0 - p0_13_3 * f0_13_3_2_0 - p0_13_4 * f0_13_4_2_0
   - p0_13_5 * f0_13_5_2_0 - p0_13_6 * f0_13_6_2_0 - p0_13_7 * f0_13_7_2_0
   - p0_13_8 * f0_13_8_2_0 - p0_13_9 * f0_13_9_2_0 ] = 0
 qc97: pf1_13_2_1 + [ - p0_13_0 * f0_13_0_2_1 - p0_13_1 * f0_13_1_2_1
   - p0_13_2 * f0_13_2_2_1 - p0_13_3 * f0_13_3_2_1 - p0_13_4 * f0_13_4_2_1
   - p0_13_5 * f0_13_5_2_1 - p0_13_6 * f0_13_6_2_1 - p0_13_7 * f0_13_7_2_1
   - p0_13_8 * f0_13_8_2_1 - p0_13_9 * f0_13_9_2_1 ] = 0
 qc98: pf1_13_2_2 + [ - p0_13_0 * f0_13_0_2_2 - p0_13_1 * f0_13_1_2_2
   - p0_13_2 * f0_13_2_2_2 - p0_13_3 * f0_13_3_2_2 - p0_13_4 * f0_13_4_2_2
   - p0_13_5 * f0_13_5_2_2 - p0_13_6 * f0_13_6_2_2 - p0_13_7 * f0_13_7_2_2
   - p0_13_8 * f0_13_8_2_2 - p0_13_9 * f0_13_9_2_2 ] = 0
 qc99: pf1_13_3_0 + [ - p0_13_0 * f0_13_0_3_0 - p0_13_1 * f0_13_1_3_0
   - p0_13_2 * f0_13_2_3_0 - p0_13_3 * f0_13_3_3_0 - p0_13_4 * f0_13_4_3_0
   - p0_13_5 * f0_13_5_3_0 - p0_13_6 * f0_13_6_3_0 - p0_13_7 * f0_13_7_3_0
   - p0_13_8 * f0_13_8_3_0 - p0_13_9 * f0_13_9_3_0 ] = 0
 qc100: pf1_13_3_1 + [ - p0_13_0 * f0_13_0_3_1 - p0_13_1 * f0_13_1_3_1
   - p0_13_2 * f0_13_2_3_1 - p0_13_3 * f0_13_3_3_1 - p0_13_4 * f0_13_4_3_1
   - p0_13_5 * f0_13_5_3_1 - p0_13_6 * f0_13_6_3_1 - p0_13_7 * f0_13_7_3_1
   - p0_13_8 * f0_13_8_3_1 - p0_13_9 * f0_13_9_3_1 ] = 0
 qc101: pf1_13_3_2 + [ - p0_13_0 * f0_13_0_3_2 - p0_13_1 * f0_13_1_3_2
   - p0_13_2 * f0_13_2_3_2 - p0_13_3 * f0_13_3_3_2 - p0_13_4 * f0_13_4_3_2
   - p0_13_5 * f0_13_5_3_2 - p0_13_6 * f0_13_6_3_2 - p0_13_7 * f0_13_7_3_2
   - p0_13_8 * f0_13_8_3_2 - p0_13_9 * f0_13_9_3_2 ] = 0
 qc102: qft1_13_0_0 + [ - pf1_13_1_0 * pf1_13_1_1 ] = 0
 qc103: qft1_13_0_1 + [ - pf1_13_1_0 * pf1_13_1_2 ] = 0
 qc104: qft1_13_0_2 + [ - pf1_13_1_1 * pf1_13_1_2 ] = 0
 qc105: p1_13_1 - pf1_13_1_0 - pf1_13_1_1 - pf1_13_1_2 + 2 qft1_13_0_0
   + 2 qft1_13_0_1 + 2 qft1_13_0_2 + [ - 4 pf1_13_1_2 * qft1_13_0_0 ] = 0
 qc106: p1_12_3 - qft1_13_0_0 - qft1_13_0_1 - qft1_13_0_2 + [
   2 pf1_13_1_2 * qft1_13_0_0 ] = 0
 qc107: qft1_13_1_0 + [ - pf1_13_2_0 * pf1_13_2_1 ] = 0
 qc108: qft1_13_1_1 + [ - pf1_13_2_0 * pf1_13_2_2 ] = 0
 qc109: qft1_13_1_2 + [ - pf1_13_2_1 * pf1_13_2_2 ] = 0
 qc110: p1_13_2 - pf1_13_2_0 - pf1_13_2_1 - pf1_13_2_2 + 2 qft1_13_1_0
   + 2 qft1_13_1_1 + 2 qft1_13_1_2 + [ - 4 pf1_13_2_2 * qft1_13_1_0 ] = 0
 qc111: p1_12_4 - qft1_13_1_0 - qft1_13_1_1 - qft1_13_1_2 + [
   2 pf1_13_2_2 * qft1_13_1_0 ] = 0
 qc112: qft1_13_2_0 + [ - pf1_13_3_0 * pf1_13_3_1 ] = 0
 qc113: qft1_13_2_1 + [ - pf1_13_3_0 * pf1_13_3_2 ] = 0
 qc114: qft1_13_2_2 + [ - pf1_13_3_1 * pf1_13_3_2 ] = 0
 qc115: p1_13_3 - pf1_13_3_0 - pf1_13_3_1 - pf1_13_3_2 + 2 qft1_13_2_0
   + 2 qft1_13_2_1 + 2 qft1_13_2_2 + [ - 4 pf1_13_3_2 * qft1_13_2_0 ] = 0
 qc116: p1_12_5 - qft1_13_2_0 - qft1_13_2_1 - qft1_13_2_2 + [
   2 pf1_13_3_2 * qft1_13_2_0 ] = 0
 qc117: - p1_14_0 + [ p0_14_0 * rb0_14_0_0 + p0_14_1 * rb0_14_1_0
   + p0_14_2 * rb0_14_2_0 + p0_14_3 * rb0_14_3_0 + p0_14_4 * rb0_14_4_0
   + p0_14_5 * rb0_14_5_0 + p0_14_6 * rb0_14_6_0 + p0_14_7 * rb0_14_7_0
   + p0_14_8 * rb0_14_8_0 + p0_14_9 * rb0_14_9_0 + p0_14_10 * rb0_14_10_0 ]
   = 0
 qc118: - p1_14_1 + [ p0_14_0 * rb0_14_0_1 + p0_14_1 * rb0_14_1_1
   + p0_14_2 * rb0_14_2_1 + p0_14_3 * rb0_14_3_1 + p0_14_4 * rb0_14_4_1
   + p0_14_5 * rb0_14_5_1 + p0_14_6 * rb0_14_6_1 + p0_14_7 * rb0_14_7_1
   + p0_14_8 * rb0_14_8_1 + p0_14_9 * rb0_14_9_1 + p0_14_10 * rb0_14_10_1 ]
   = 0
 qc119: pf1_14_1_0 + [ - p0_14_0 * f0_14_0_1_0 - p0_14_1 * f0_14_1_1_0
   - p0_14_2 * f0_14_2_1_0 - p0_14_3 * f0_14_3_1_0 - p0_14_4 * f0_14_4_1_0
   - p0_14_5 * f0_14_5_1_0 - p0_14_6 * f0_14_6_1_0 - p0_14_7 * f0_14_7_1_0
   - p0_14_8 * f0_14_8_1_0 - p0_14_9 * f0_14_9_1_0
   - p0_14_10 * f0_14_10_1_0 ] = 0
 qc120: pf1_14_1_1 + [ - p0_14_0 * f0_14_0_1_1 - p0_14_1 * f0_14_1_1_1
   - p0_14_2 * f0_14_2_1_1 - p0_14_3 * f0_14_3_1_1 - p0_14_4 * f0_14_4_1_1
   - p0_14_5 * f0_14_5_1_1 - p0_14_6 * f0_14_6_1_1 - p0_14_7 * f0_14_7_1_1
   - p0_14_8 * f0_14_8_1_1 - p0_14_9 * f0_14_9_1_1
   - p0_14_10 * f0_14_10_1_1 ] = 0
 qc121: pf1_14_1_2 + [ - p0_14_0 * f0_14_0_1_2 - p0_14_1 * f0_14_1_1_2
   - p0_14_2 * f0_14_2_1_2 - p0_14_3 * f0_14_3_1_2 - p0_14_4 * f0_14_4_1_2
   - p0_14_5 * f0_14_5_1_2 - p0_14_6 * f0_14_6_1_2 - p0_14_7 * f0_14_7_1_2
   - p0_14_8 * f0_14_8_1_2 - p0_14_9 * f0_14_9_1_2
   - p0_14_10 * f0_14_10_1_2 ] = 0
 qc122: pf1_14_2_0 + [ - p0_14_0 * f0_14_0_2_0 - p0_14_1 * f0_14_1_2_0
   - p0_14_2 * f0_14_2_2_0 - p0_14_3 * f0_14_3_2_0 - p0_14_4 * f0_14_4_2_0
   - p0_14_5 * f0_14_5_2_0 - p0_14_6 * f0_14_6_2_0 - p0_14_7 * f0_14_7_2_0
   - p0_14_8 * f0_14_8_2_0 - p0_14_9 * f0_14_9_2_0
   - p0_14_10 * f0_14_10_2_0 ] = 0
 qc123: pf1_14_2_1 + [ - p0_14_0 * f0_14_0_2_1 - p0_14_1 * f0_14_1_2_1
   - p0_14_2 * f0_14_2_2_1 - p0_14_3 * f0_14_3_2_1 - p0_14_4 * f0_14_4_2_1
   - p0_14_5 * f0_14_5_2_1 - p0_14_6 * f0_14_6_2_1 - p0_14_7 * f0_14_7_2_1
   - p0_14_8 * f0_14_8_2_1 - p0_14_9 * f0_14_9_2_1
   - p0_14_10 * f0_14_10_2_1 ] = 0
 qc124: pf1_14_2_2 + [ - p0_14_0 * f0_14_0_2_2 - p0_14_1 * f0_14_1_2_2
   - p0_14_2 * f0_14_2_2_2 - p0_14_3 * f0_14_3_2_2 - p0_14_4 * f0_14_4_2_2
   - p0_14_5 * f0_14_5_2_2 - p0_14_6 * f0_14_6_2_2 - p0_14_7 * f0_14_7_2_2
   - p0_14_8 * f0_14_8_2_2 - p0_14_9 * f0_14_9_2_2
   - p0_14_10 * f0_14_10_2_2 ] = 0
 qc125: pf1_14_3_0 + [ - p0_14_0 * f0_14_0_3_0 - p0_14_1 * f0_14_1_3_0
   - p0_14_2 * f0_14_2_3_0 - p0_14_3 * f0_14_3_3_0 - p0_14_4 * f0_14_4_3_0
   - p0_14_5 * f0_14_5_3_0 - p0_14_6 * f0_14_6_3_0 - p0_14_7 * f0_14_7_3_0
   - p0_14_8 * f0_14_8_3_0 - p0_14_9 * f0_14_9_3_0
   - p0_14_10 * f0_14_10_3_0 ] = 0
 qc126: pf1_14_3_1 + [ - p0_14_0 * f0_14_0_3_1 - p0_14_1 * f0_14_1_3_1
   - p0_14_2 * f0_14_2_3_1 - p0_14_3 * f0_14_3_3_1 - p0_14_4 * f0_14_4_3_1
   - p0_14_5 * f0_14_5_3_1 - p0_14_6 * f0_14_6_3_1 - p0_14_7 * f0_14_7_3_1
   - p0_14_8 * f0_14_8_3_1 - p0_14_9 * f0_14_9_3_1
   - p0_14_10 * f0_14_10_3_1 ] = 0
 qc127: pf1_14_3_2 + [ - p0_14_0 * f0_14_0_3_2 - p0_14_1 * f0_14_1_3_2
   - p0_14_2 * f0_14_2_3_2 - p0_14_3 * f0_14_3_3_2 - p0_14_4 * f0_14_4_3_2
   - p0_14_5 * f0_14_5_3_2 - p0_14_6 * f0_14_6_3_2 - p0_14_7 * f0_14_7_3_2
   - p0_14_8 * f0_14_8_3_2 - p0_14_9 * f0_14_9_3_2
   - p0_14_10 * f0_14_10_3_2 ] = 0
 qc128: qft1_14_0_0 + [ - pf1_14_1_0 * pf1_14_1_1 ] = 0
 qc129: qft1_14_0_1 + [ - pf1_14_1_0 * pf1_14_1_2 ] = 0
 qc130: qft1_14_0_2 + [ - pf1_14_1_1 * pf1_14_1_2 ] = 0
 qc131: p1_14_2 - pf1_14_1_0 - pf1_14_1_1 - pf1_14_1_2 + 2 qft1_14_0_0
   + 2 qft1_14_0_1 + 2 qft1_14_0_2 + [ - 4 pf1_14_1_2 * qft1_14_0_0 ] = 0
 qc132: p1_13_4 - qft1_14_0_0 - qft1_14_0_1 - qft1_14_0_2 + [
   2 pf1_14_1_2 * qft1_14_0_0 ] = 0
 qc133: qft1_14_1_0 + [ - pf1_14_2_0 * pf1_14_2_1 ] = 0
 qc134: qft1_14_1_1 + [ - pf1_14_2_0 * pf1_14_2_2 ] = 0
 qc135: qft1_14_1_2 + [ - pf1_14_2_1 * pf1_14_2_2 ] = 0
 qc136: p1_14_3 - pf1_14_2_0 - pf1_14_2_1 - pf1_14_2_2 + 2 qft1_14_1_0
   + 2 qft1_14_1_1 + 2 qft1_14_1_2 + [ - 4 pf1_14_2_2 * qft1_14_1_0 ] = 0
 qc137: p1_13_5 - qft1_14_1_0 - qft1_14_1_1 - qft1_14_1_2 + [
   2 pf1_14_2_2 * qft1_14_1_0 ] = 0
 qc138: qft1_14_2_0 + [ - pf1_14_3_0 * pf1_14_3_1 ] = 0
 qc139: qft1_14_2_1 + [ - pf1_14_3_0 * pf1_14_3_2 ] = 0
 qc140: qft1_14_2_2 + [ - pf1_14_3_1 * pf1_14_3_2 ] = 0
 qc141: p1_14_4 - pf1_14_3_0 - pf1_14_3_1 - pf1_14_3_2 + 2 qft1_14_2_0
   + 2 qft1_14_2_1 + 2 qft1_14_2_2 + [ - 4 pf1_14_3_2 * qft1_14_2_0 ] = 0
 qc142: p1_13_6 - qft1_14_2_0 - qft1_14_2_1 - qft1_14_2_2 + [
   2 pf1_14_3_2 * qft1_14_2_0 ] = 0
 qc143: pf1_15_1_0 + [ - p0_15_0 * f0_15_0_1_0 - p0_15_1 * f0_15_1_1_0
   - p0_15_2 * f0_15_2_1_0 - p0_15_3 * f0_15_3_1_0 - p0_15_4 * f0_15_4_1_0
   - p0_15_5 * f0_15_5_1_0 - p0_15_6 * f0_15_6_1_0 - p0_15_7 * f0_15_7_1_0
   - p0_15_8 * f0_15_8_1_0 - p0_15_9 * f0_15_9_1_0
   - p0_15_10 * f0_15_10_1_0 - p0_15_11 * f0_15_11_1_0 ] = 0
 qc144: pf1_15_1_1 + [ - p0_15_0 * f0_15_0_1_1 - p0_15_1 * f0_15_1_1_1
   - p0_15_2 * f0_15_2_1_1 - p0_15_3 * f0_15_3_1_1 - p0_15_4 * f0_15_4_1_1
   - p0_15_5 * f0_15_5_1_1 - p0_15_6 * f0_15_6_1_1 - p0_15_7 * f0_15_7_1_1
   - p0_15_8 * f0_15_8_1_1 - p0_15_9 * f0_15_9_1_1
   - p0_15_10 * f0_15_10_1_1 - p0_15_11 * f0_15_11_1_1 ] = 0
 qc145: pf1_15_1_2 + [ - p0_15_0 * f0_15_0_1_2 - p0_15_1 * f0_15_1_1_2
   - p0_15_2 * f0_15_2_1_2 - p0_15_3 * f0_15_3_1_2 - p0_15_4 * f0_15_4_1_2
   - p0_15_5 * f0_15_5_1_2 - p0_15_6 * f0_15_6_1_2 - p0_15_7 * f0_15_7_1_2
   - p0_15_8 * f0_15_8_1_2 - p0_15_9 * f0_15_9_1_2
   - p0_15_10 * f0_15_10_1_2 - p0_15_11 * f0_15_11_1_2 ] = 0
 qc146: pf1_15_2_0 + [ - p0_15_0 * f0_15_0_2_0 - p0_15_1 * f0_15_1_2_0
   - p0_15_2 * f0_15_2_2_0 - p0_15_3 * f0_15_3_2_0 - p0_15_4 * f0_15_4_2_0
   - p0_15_5 * f0_15_5_2_0 - p0_15_6 * f0_15_6_2_0 - p0_15_7 * f0_15_7_2_0
   - p0_15_8 * f0_15_8_2_0 - p0_15_9 * f0_15_9_2_0
   - p0_15_10 * f0_15_10_2_0 - p0_15_11 * f0_15_11_2_0 ] = 0
 qc147: pf1_15_2_1 + [ - p0_15_0 * f0_15_0_2_1 - p0_15_1 * f0_15_1_2_1
   - p0_15_2 * f0_15_2_2_1 - p0_15_3 * f0_15_3_2_1 - p0_15_4 * f0_15_4_2_1
   - p0_15_5 * f0_15_5_2_1 - p0_15_6 * f0_15_6_2_1 - p0_15_7 * f0_15_7_2_1
   - p0_15_8 * f0_15_8_2_1 - p0_15_9 * f0_15_9_2_1
   - p0_15_10 * f0_15_10_2_1 - p0_15_11 * f0_15_11_2_1 ] = 0
 qc148: pf1_15_2_2 + [ - p0_15_0 * f0_15_0_2_2 - p0_15_1 * f0_15_1_2_2
   - p0_15_2 * f0_15_2_2_2 - p0_15_3 * f0_15_3_2_2 - p0_15_4 * f0_15_4_2_2
   - p0_15_5 * f0_15_5_2_2 - p0_15_6 * f0_15_6_2_2 - p0_15_7 * f0_15_7_2_2
   - p0_15_8 * f0_15_8_2_2 - p0_15_9 * f0_15_9_2_2
   - p0_15_10 * f0_15_10_2_2 - p0_15_11 * f0_15_11_2_2 ] = 0
 qc149: pf1_15_3_0 + [ - p0_15_0 * f0_15_0_3_0 - p0_15_1 * f0_15_1_3_0
   - p0_15_2 * f0_15_2_3_0 - p0_15_3 * f0_15_3_3_0 - p0_15_4 * f0_15_4_3_0
   - p0_15_5 * f0_15_5_3_0 - p0_15_6 * f0_15_6_3_0 - p0_15_7 * f0_15_7_3_0
   - p0_15_8 * f0_15_8_3_0 - p0_15_9 * f0_15_9_3_0
   - p0_15_10 * f0_15_10_3_0 - p0_15_11 * f0_15_11_3_0 ] = 0
 qc150: pf1_15_3_1 + [ - p0_15_0 * f0_15_0_3_1 - p0_15_1 * f0_15_1_3_1
   - p0_15_2 * f0_15_2_3_1 - p0_15_3 * f0_15_3_3_1 - p0_15_4 * f0_15_4_3_1
   - p0_15_5 * f0_15_5_3_1 - p0_15_6 * f0_15_6_3_1 - p0_15_7 * f0_15_7_3_1
   - p0_15_8 * f0_15_8_3_1 - p0_15_9 * f0_15_9_3_1
   - p0_15_10 * f0_15_10_3_1 - p0_15_11 * f0_15_11_3_1 ] = 0
 qc151: pf1_15_3_2 + [ - p0_15_0 * f0_15_0_3_2 - p0_15_1 * f0_15_1_3_2
   - p0_15_2 * f0_15_2_3_2 - p0_15_3 * f0_15_3_3_2 - p0_15_4 * f0_15_4_3_2
   - p0_15_5 * f0_15_5_3_2 - p0_15_6 * f0_15_6_3_2 - p0_15_7 * f0_15_7_3_2
   - p0_15_8 * f0_15_8_3_2 - p0_15_9 * f0_15_9_3_2
   - p0_15_10 * f0_15_10_3_2 - p0_15_11 * f0_15_11_3_2 ] = 0
 qc152: pf1_15_4_0 + [ - p0_15_0 * f0_15_0_4_0 - p0_15_1 * f0_15_1_4_0
   - p0_15_2 * f0_15_2_4_0 - p0_15_3 * f0_15_3_4_0 - p0_15_4 * f0_15_4_4_0
   - p0_15_5 * f0_15_5_4_0 - p0_15_6 * f0_15_6_4_0 - p0_15_7 * f0_15_7_4_0
   - p0_15_8 * f0_15_8_4_0 - p0_15_9 * f0_15_9_4_0
   - p0_15_10 * f0_15_10_4_0 - p0_15_11 * f0_15_11_4_0 ] = 0
 qc153: pf1_15_4_1 + [ - p0_15_0 * f0_15_0_4_1 - p0_15_1 * f0_15_1_4_1
   - p0_15_2 * f0_15_2_4_1 - p0_15_3 * f0_15_3_4_1 - p0_15_4 * f0_15_4_4_1
   - p0_15_5 * f0_15_5_4_1 - p0_15_6 * f0_15_6_4_1 - p0_15_7 * f0_15_7_4_1
   - p0_15_8 * f0_15_8_4_1 - p0_15_9 * f0_15_9_4_1
   - p0_15_10 * f0_15_10_4_1 - p0_15_11 * f0_15_11_4_1 ] = 0
 qc154: pf1_15_4_2 + [ - p0_15_0 * f0_15_0_4_2 - p0_15_1 * f0_15_1_4_2
   - p0_15_2 * f0_15_2_4_2 - p0_15_3 * f0_15_3_4_2 - p0_15_4 * f0_15_4_4_2
   - p0_15_5 * f0_15_5_4_2 - p0_15_6 * f0_15_6_4_2 - p0_15_7 * f0_15_7_4_2
   - p0_15_8 * f0_15_8_4_2 - p0_15_9 * f0_15_9_4_2
   - p0_15_10 * f0_15_10_4_2 - p0_15_11 * f0_15_11_4_2 ] = 0
 qc155: qft1_15_0_0 + [ - pf1_15_1_0 * pf1_15_1_1 ] = 0
 qc156: qft1_15_0_1 + [ - pf1_15_1_0 * pf1_15_1_2 ] = 0
 qc157: qft1_15_0_2 + [ - pf1_15_1_1 * pf1_15_1_2 ] = 0
 qc158: p1_15_0 - pf1_15_1_0 - pf1_15_1_1 - pf1_15_1_2 + 2 qft1_15_0_0
   + 2 qft1_15_0_1 + 2 qft1_15_0_2 + [ - 4 pf1_15_1_2 * qft1_15_0_0 ] = 0
 qc159: p1_14_5 - qft1_15_0_0 - qft1_15_0_1 - qft1_15_0_2 + [
   2 pf1_15_1_2 * qft1_15_0_0 ] = 0
 qc160: qft1_15_1_0 + [ - pf1_15_2_0 * pf1_15_2_1 ] = 0
 qc161: qft1_15_1_1 + [ - pf1_15_2_0 * pf1_15_2_2 ] = 0
 qc162: qft1_15_1_2 + [ - pf1_15_2_1 * pf1_15_2_2 ] = 0
 qc163: p1_15_1 - pf1_15_2_0 - pf1_15_2_1 - pf1_15_2_2 + 2 qft1_15_1_0
   + 2 qft1_15_1_1 + 2 qft1_15_1_2 + [ - 4 pf1_15_2_2 * qft1_15_1_0 ] = 0
 qc164: p1_14_6 - qft1_15_1_0 - qft1_15_1_1 - qft1_15_1_2 + [
   2 pf1_15_2_2 * qft1_15_1_0 ] = 0
 qc165: qft1_15_2_0 + [ - pf1_15_3_0 * pf1_15_3_1 ] = 0
 qc166: qft1_15_2_1 + [ - pf1_15_3_0 * pf1_15_3_2 ] = 0
 qc167: qft1_15_2_2 + [ - pf1_15_3_1 * pf1_15_3_2 ] = 0
 qc168: p1_15_2 - pf1_15_3_0 - pf1_15_3_1 - pf1_15_3_2 + 2 qft1_15_2_0
   + 2 qft1_15_2_1 + 2 qft1_15_2_2 + [ - 4 pf1_15_3_2 * qft1_15_2_0 ] = 0
 qc169: p1_14_7 - qft1_15_2_0 - qft1_15_2_1 - qft1_15_2_2 + [
   2 pf1_15_3_2 * qft1_15_2_0 ] = 0
 qc170: qft1_15_3_0 + [ - pf1_15_4_0 * pf1_15_4_1 ] = 0
 qc171: qft1_15_3_1 + [ - pf1_15_4_0 * pf1_15_4_2 ] = 0
 qc172: qft1_15_3_2 + [ - pf1_15_4_1 * pf1_15_4_2 ] = 0
 qc173: p1_15_3 - pf1_15_4_0 - pf1_15_4_1 - pf1_15_4_2 + 2 qft1_15_3_0
   + 2 qft1_15_3_1 + 2 qft1_15_3_2 + [ - 4 pf1_15_4_2 * qft1_15_3_0 ] = 0
 qc174: p1_14_8 - qft1_15_3_0 - qft1_15_3_1 - qft1_15_3_2 + [
   2 pf1_15_4_2 * qft1_15_3_0 ] = 0
 qc175: - p1_16_0 + [ p0_16_0 * rb0_16_0_0 + p0_16_1 * rb0_16_1_0
   + p0_16_2 * rb0_16_2_0 + p0_16_3 * rb0_16_3_0 + p0_16_4 * rb0_16_4_0
   + p0_16_5 * rb0_16_5_0 + p0_16_6 * rb0_16_6_0 + p0_16_7 * rb0_16_7_0
   + p0_16_8 * rb0_16_8_0 + p0_16_9 * rb0_16_9_0 + p0_16_10 * rb0_16_10_0
   + p0_16_11 * rb0_16_11_0 + p0_16_12 * rb0_16_12_0 ] = 0
 qc176: p4a1_16_1_0 + [ - p0_16_0 * a4c0_16_0_1_0 - p0_16_1 * a4c0_16_1_1_0
   - p0_16_2 * a4c0_16_2_1_0 - p0_16_3 * a4c0_16_3_1_0
   - p0_16_4 * a4c0_16_4_1_0 - p0_16_5 * a4c0_16_5_1_0
   - p0_16_6 * a4c0_16_6_1_0 - p0_16_7 * a4c0_16_7_1_0
   - p0_16_8 * a4c0_16_8_1_0 - p0_16_9 * a4c0_16_9_1_0
   - p0_16_10 * a4c0_16_10_1_0 - p0_16_11 * a4c0_16_11_1_0
   - p0_16_12 * a4c0_16_12_1_0 ] = 0
 qc177: p4a1_16_1_1 + [ - p0_16_0 * a4c0_16_0_1_1 - p0_16_1 * a4c0_16_1_1_1
   - p0_16_2 * a4c0_16_2_1_1 - p0_16_3 * a4c0_16_3_1_1
   - p0_16_4 * a4c0_16_4_1_1 - p0_16_5 * a4c0_16_5_1_1
   - p0_16_6 * a4c0_16_6_1_1 - p0_16_7 * a4c0_16_7_1_1
   - p0_16_8 * a4c0_16_8_1_1 - p0_16_9 * a4c0_16_9_1_1
   - p0_16_10 * a4c0_16_10_1_1 - p0_16_11 * a4c0_16_11_1_1
   - p0_16_12 * a4c0_16_12_1_1 ] = 0
 qc178: p4a1_16_1_2 + [ - p0_16_0 * a4c0_16_0_1_2 - p0_16_1 * a4c0_16_1_1_2
   - p0_16_2 * a4c0_16_2_1_2 - p0_16_3 * a4c0_16_3_1_2
   - p0_16_4 * a4c0_16_4_1_2 - p0_16_5 * a4c0_16_5_1_2
   - p0_16_6 * a4c0_16_6_1_2 - p0_16_7 * a4c0_16_7_1_2
   - p0_16_8 * a4c0_16_8_1_2 - p0_16_9 * a4c0_16_9_1_2
   - p0_16_10 * a4c0_16_10_1_2 - p0_16_11 * a4c0_16_11_1_2
   - p0_16_12 * a4c0_16_12_1_2 ] = 0
 qc179: p4a1_16_1_3 + [ - p0_16_0 * a4c0_16_0_1_3 - p0_16_1 * a4c0_16_1_1_3
   - p0_16_2 * a4c0_16_2_1_3 - p0_16_3 * a4c0_16_3_1_3
   - p0_16_4 * a4c0_16_4_1_3 - p0_16_5 * a4c0_16_5_1_3
   - p0_16_6 * a4c0_16_6_1_3 - p0_16_7 * a4c0_16_7_1_3
   - p0_16_8 * a4c0_16_8_1_3 - p0_16_9 * a4c0_16_9_1_3
   - p0_16_10 * a4c0_16_10_1_3 - p0_16_11 * a4c0_16_11_1_3
   - p0_16_12 * a4c0_16_12_1_3 ] = 0
 qc180: p4a1_16_2_0 + [ - p0_16_0 * a4c0_16_0_2_0 - p0_16_1 * a4c0_16_1_2_0
   - p0_16_2 * a4c0_16_2_2_0 - p0_16_3 * a4c0_16_3_2_0
   - p0_16_4 * a4c0_16_4_2_0 - p0_16_5 * a4c0_16_5_2_0
   - p0_16_6 * a4c0_16_6_2_0 - p0_16_7 * a4c0_16_7_2_0
   - p0_16_8 * a4c0_16_8_2_0 - p0_16_9 * a4c0_16_9_2_0
   - p0_16_10 * a4c0_16_10_2_0 - p0_16_11 * a4c0_16_11_2_0
   - p0_16_12 * a4c0_16_12_2_0 ] = 0
 qc181: p4a1_16_2_1 + [ - p0_16_0 * a4c0_16_0_2_1 - p0_16_1 * a4c0_16_1_2_1
   - p0_16_2 * a4c0_16_2_2_1 - p0_16_3 * a4c0_16_3_2_1
   - p0_16_4 * a4c0_16_4_2_1 - p0_16_5 * a4c0_16_5_2_1
   - p0_16_6 * a4c0_16_6_2_1 - p0_16_7 * a4c0_16_7_2_1
   - p0_16_8 * a4c0_16_8_2_1 - p0_16_9 * a4c0_16_9_2_1
   - p0_16_10 * a4c0_16_10_2_1 - p0_16_11 * a4c0_16_11_2_1
   - p0_16_12 * a4c0_16_12_2_1 ] = 0
 qc182: p4a1_16_2_2 + [ - p0_16_0 * a4c0_16_0_2_2 - p0_16_1 * a4c0_16_1_2_2
   - p0_16_2 * a4c0_16_2_2_2 - p0_16_3 * a4c0_16_3_2_2
   - p0_16_4 * a4c0_16_4_2_2 - p0_16_5 * a4c0_16_5_2_2
   - p0_16_6 * a4c0_16_6_2_2 - p0_16_7 * a4c0_16_7_2_2
   - p0_16_8 * a4c0_16_8_2_2 - p0_16_9 * a4c0_16_9_2_2
   - p0_16_10 * a4c0_16_10_2_2 - p0_16_11 * a4c0_16_11_2_2
   - p0_16_12 * a4c0_16_12_2_2 ] = 0
 qc183: p4a1_16_2_3 + [ - p0_16_0 * a4c0_16_0_2_3 - p0_16_1 * a4c0_16_1_2_3
   - p0_16_2 * a4c0_16_2_2_3 - p0_16_3 * a4c0_16_3_2_3
   - p0_16_4 * a4c0_16_4_2_3 - p0_16_5 * a4c0_16_5_2_3
   - p0_16_6 * a4c0_16_6_2_3 - p0_16_7 * a4c0_16_7_2_3
   - p0_16_8 * a4c0_16_8_2_3 - p0_16_9 * a4c0_16_9_2_3
   - p0_16_10 * a4c0_16_10_2_3 - p0_16_11 * a4c0_16_11_2_3
   - p0_16_12 * a4c0_16_12_2_3 ] = 0
 qc184: p4a1_16_3_0 + [ - p0_16_0 * a4c0_16_0_3_0 - p0_16_1 * a4c0_16_1_3_0
   - p0_16_2 * a4c0_16_2_3_0 - p0_16_3 * a4c0_16_3_3_0
   - p0_16_4 * a4c0_16_4_3_0 - p0_16_5 * a4c0_16_5_3_0
   - p0_16_6 * a4c0_16_6_3_0 - p0_16_7 * a4c0_16_7_3_0
   - p0_16_8 * a4c0_16_8_3_0 - p0_16_9 * a4c0_16_9_3_0
   - p0_16_10 * a4c0_16_10_3_0 - p0_16_11 * a4c0_16_11_3_0
   - p0_16_12 * a4c0_16_12_3_0 ] = 0
 qc185: p4a1_16_3_1 + [ - p0_16_0 * a4c0_16_0_3_1 - p0_16_1 * a4c0_16_1_3_1
   - p0_16_2 * a4c0_16_2_3_1 - p0_16_3 * a4c0_16_3_3_1
   - p0_16_4 * a4c0_16_4_3_1 - p0_16_5 * a4c0_16_5_3_1
   - p0_16_6 * a4c0_16_6_3_1 - p0_16_7 * a4c0_16_7_3_1
   - p0_16_8 * a4c0_16_8_3_1 - p0_16_9 * a4c0_16_9_3_1
   - p0_16_10 * a4c0_16_10_3_1 - p0_16_11 * a4c0_16_11_3_1
   - p0_16_12 * a4c0_16_12_3_1 ] = 0
 qc186: p4a1_16_3_2 + [ - p0_16_0 * a4c0_16_0_3_2 - p0_16_1 * a4c0_16_1_3_2
   - p0_16_2 * a4c0_16_2_3_2 - p0_16_3 * a4c0_16_3_3_2
   - p0_16_4 * a4c0_16_4_3_2 - p0_16_5 * a4c0_16_5_3_2
   - p0_16_6 * a4c0_16_6_3_2 - p0_16_7 * a4c0_16_7_3_2
   - p0_16_8 * a4c0_16_8_3_2 - p0_16_9 * a4c0_16_9_3_2
   - p0_16_10 * a4c0_16_10_3_2 - p0_16_11 * a4c0_16_11_3_2
   - p0_16_12 * a4c0_16_12_3_2 ] = 0
 qc187: p4a1_16_3_3 + [ - p0_16_0 * a4c0_16_0_3_3 - p0_16_1 * a4c0_16_1_3_3
   - p0_16_2 * a4c0_16_2_3_3 - p0_16_3 * a4c0_16_3_3_3
   - p0_16_4 * a4c0_16_4_3_3 - p0_16_5 * a4c0_16_5_3_3
   - p0_16_6 * a4c0_16_6_3_3 - p0_16_7 * a4c0_16_7_3_3
   - p0_16_8 * a4c0_16_8_3_3 - p0_16_9 * a4c0_16_9_3_3
   - p0_16_10 * a4c0_16_10_3_3 - p0_16_11 * a4c0_16_11_3_3
   - p0_16_12 * a4c0_16_12_3_3 ] = 0
 qc188: q4t1_16_0_0 + [ - p4a1_16_1_2 * p4a1_16_1_3 ] = 0
 qc189: q4t1_16_0_1 + [ - p4a1_16_1_0 * p4a1_16_1_3 ] = 0
 qc190: q4t1_16_0_2 + [ - p4a1_16_1_0 * p4a1_16_1_1 ] = 0
 qc191: q4t1_16_0_3 + [ - p4a1_16_1_1 * p4a1_16_1_3 ] = 0
 qc192: q4t1_16_0_4 + [ - p4a1_16_1_1 * p4a1_16_1_2 ] = 0
 qc193: p1_16_1 - p4a1_16_1_0 - p4a1_16_1_1 - q4t1_16_0_0 - 2 q4t1_16_0_1
   - q4t1_16_0_2 + [ p4a1_16_1_0 * q4t1_16_0_0 + p4a1_16_1_1 * q4t1_16_0_0
   + 2 p4a1_16_1_3 * q4t1_16_0_2 - q4t1_16_0_1 * q4t1_16_0_4 ] = 0
 qc194: p1_16_2 - p4a1_16_1_2 - p4a1_16_1_3 + q4t1_16_0_0 - q4t1_16_0_2 + [
   p4a1_16_1_2 * q4t1_16_0_2 + p4a1_16_1_3 * q4t1_16_0_2
   - q4t1_16_0_0 * q4t1_16_0_2 ] = 0
 qc195: med4a1_16_0 + [ - p4a1_16_1_0 * q4t1_16_0_3
   - p4a1_16_1_2 * q4t1_16_0_2 - p4a1_16_1_2 * q4t1_16_0_3
   - p4a1_16_1_3 * q4t1_16_0_2 + 2 q4t1_16_0_0 * q4t1_16_0_2 ] = 0
 qc196: q4t1_16_1_0 + [ - p4a1_16_2_2 * p4a1_16_2_3 ] = 0
 qc197: q4t1_16_1_1 + [ - p4a1_16_2_0 * p4a1_16_2_3 ] = 0
 qc198: q4t1_16_1_2 + [ - p4a1_16_2_0 * p4a1_16_2_1 ] = 0
 qc199: q4t1_16_1_3 + [ - p4a1_16_2_1 * p4a1_16_2_3 ] = 0
 qc200: q4t1_16_1_4 + [ - p4a1_16_2_1 * p4a1_16_2_2 ] = 0
 qc201: p1_16_3 - p4a1_16_2_0 - p4a1_16_2_1 - q4t1_16_1_0 - 2 q4t1_16_1_1
   - q4t1_16_1_2 + [ p4a1_16_2_0 * q4t1_16_1_0 + p4a1_16_2_1 * q4t1_16_1_0
   + 2 p4a1_16_2_3 * q4t1_16_1_2 - q4t1_16_1_1 * q4t1_16_1_4 ] = 0
 qc202: p1_16_4 - p4a1_16_2_2 - p4a1_16_2_3 + q4t1_16_1_0 - q4t1_16_1_2 + [
   p4a1_16_2_2 * q4t1_16_1_2 + p4a1_16_2_3 * q4t1_16_1_2
   - q4t1_16_1_0 * q4t1_16_1_2 ] = 0
 qc203: med4a1_16_1 + [ - p4a1_16_2_0 * q4t1_16_1_3
   - p4a1_16_2_2 * q4t1_16_1_2 - p4a1_16_2_2 * q4t1_16_1_3
   - p4a1_16_2_3 * q4t1_16_1_2 + 2 q4t1_16_1_0 * q4t1_16_1_2 ] = 0
 qc204: q4t1_16_2_0 + [ - p4a1_16_3_2 * p4a1_16_3_3 ] = 0
 qc205: q4t1_16_2_1 + [ - p4a1_16_3_0 * p4a1_16_3_3 ] = 0
 qc206: q4t1_16_2_2 + [ - p4a1_16_3_0 * p4a1_16_3_1 ] = 0
 qc207: q4t1_16_2_3 + [ - p4a1_16_3_1 * p4a1_16_3_3 ] = 0
 qc208: q4t1_16_2_4 + [ - p4a1_16_3_1 * p4a1_16_3_2 ] = 0
 qc209: p1_16_5 - p4a1_16_3_0 - p4a1_16_3_1 - q4t1_16_2_0 - 2 q4t1_16_2_1
   - q4t1_16_2_2 + [ p4a1_16_3_0 * q4t1_16_2_0 + p4a1_16_3_1 * q4t1_16_2_0
   + 2 p4a1_16_3_3 * q4t1_16_2_2 - q4t1_16_2_1 * q4t1_16_2_4 ] = 0
 qc210: p1_16_6 - p4a1_16_3_2 - p4a1_16_3_3 + q4t1_16_2_0 - q4t1_16_2_2 + [
   p4a1_16_3_2 * q4t1_16_2_2 + p4a1_16_3_3 * q4t1_16_2_2
   - q4t1_16_2_0 * q4t1_16_2_2 ] = 0
 qc211: med4a1_16_2 + [ - p4a1_16_3_0 * q4t1_16_2_3
   - p4a1_16_3_2 * q4t1_16_2_2 - p4a1_16_3_2 * q4t1_16_2_3
   - p4a1_16_3_3 * q4t1_16_2_2 + 2 q4t1_16_2_0 * q4t1_16_2_2 ] = 0
 qc212: - p1_17_0 + [ p0_17_0 * rb0_17_0_0 + p0_17_1 * rb0_17_1_0
   + p0_17_2 * rb0_17_2_0 + p0_17_3 * rb0_17_3_0 + p0_17_4 * rb0_17_4_0
   + p0_17_5 * rb0_17_5_0 + p0_17_6 * rb0_17_6_0 + p0_17_7 * rb0_17_7_0
   + p0_17_8 * rb0_17_8_0 + p0_17_9 * rb0_17_9_0 + p0_17_10 * rb0_17_10_0
   + p0_17_11 * rb0_17_11_0 + p0_17_12 * rb0_17_12_0
   + p0_17_13 * rb0_17_13_0 ] = 0
 qc213: - p1_17_1 + [ p0_17_0 * rb0_17_0_1 + p0_17_1 * rb0_17_1_1
   + p0_17_2 * rb0_17_2_1 + p0_17_3 * rb0_17_3_1 + p0_17_4 * rb0_17_4_1
   + p0_17_5 * rb0_17_5_1 + p0_17_6 * rb0_17_6_1 + p0_17_7 * rb0_17_7_1
   + p0_17_8 * rb0_17_8_1 + p0_17_9 * rb0_17_9_1 + p0_17_10 * rb0_17_10_1
   + p0_17_11 * rb0_17_11_1 + p0_17_12 * rb0_17_12_1
   + p0_17_13 * rb0_17_13_1 ] = 0
 qc214: - p1_17_2 + [ p0_17_0 * rb0_17_0_2 + p0_17_1 * rb0_17_1_2
   + p0_17_2 * rb0_17_2_2 + p0_17_3 * rb0_17_3_2 + p0_17_4 * rb0_17_4_2
   + p0_17_5 * rb0_17_5_2 + p0_17_6 * rb0_17_6_2 + p0_17_7 * rb0_17_7_2
   + p0_17_8 * rb0_17_8_2 + p0_17_9 * rb0_17_9_2 + p0_17_10 * rb0_17_10_2
   + p0_17_11 * rb0_17_11_2 + p0_17_12 * rb0_17_12_2
   + p0_17_13 * rb0_17_13_2 ] = 0
 qc215: p4a1_17_1_0 + [ - p0_17_0 * a4c0_17_0_1_0 - p0_17_1 * a4c0_17_1_1_0
   - p0_17_2 * a4c0_17_2_1_0 - p0_17_3 * a4c0_17_3_1_0
   - p0_17_4 * a4c0_17_4_1_0 - p0_17_5 * a4c0_17_5_1_0
   - p0_17_6 * a4c0_17_6_1_0 - p0_17_7 * a4c0_17_7_1_0
   - p0_17_8 * a4c0_17_8_1_0 - p0_17_9 * a4c0_17_9_1_0
   - p0_17_10 * a4c0_17_10_1_0 - p0_17_11 * a4c0_17_11_1_0
   - p0_17_12 * a4c0_17_12_1_0 - p0_17_13 * a4c0_17_13_1_0 ] = 0
 qc216: p4a1_17_1_1 + [ - p0_17_0 * a4c0_17_0_1_1 - p0_17_1 * a4c0_17_1_1_1
   - p0_17_2 * a4c0_17_2_1_1 - p0_17_3 * a4c0_17_3_1_1
   - p0_17_4 * a4c0_17_4_1_1 - p0_17_5 * a4c0_17_5_1_1
   - p0_17_6 * a4c0_17_6_1_1 - p0_17_7 * a4c0_17_7_1_1
   - p0_17_8 * a4c0_17_8_1_1 - p0_17_9 * a4c0_17_9_1_1
   - p0_17_10 * a4c0_17_10_1_1 - p0_17_11 * a4c0_17_11_1_1
   - p0_17_12 * a4c0_17_12_1_1 - p0_17_13 * a4c0_17_13_1_1 ] = 0
 qc217: p4a1_17_1_2 + [ - p0_17_0 * a4c0_17_0_1_2 - p0_17_1 * a4c0_17_1_1_2
   - p0_17_2 * a4c0_17_2_1_2 - p0_17_3 * a4c0_17_3_1_2
   - p0_17_4 * a4c0_17_4_1_2 - p0_17_5 * a4c0_17_5_1_2
   - p0_17_6 * a4c0_17_6_1_2 - p0_17_7 * a4c0_17_7_1_2
   - p0_17_8 * a4c0_17_8_1_2 - p0_17_9 * a4c0_17_9_1_2
   - p0_17_10 * a4c0_17_10_1_2 - p0_17_11 * a4c0_17_11_1_2
   - p0_17_12 * a4c0_17_12_1_2 - p0_17_13 * a4c0_17_13_1_2 ] = 0
 qc218: p4a1_17_1_3 + [ - p0_17_0 * a4c0_17_0_1_3 - p0_17_1 * a4c0_17_1_1_3
   - p0_17_2 * a4c0_17_2_1_3 - p0_17_3 * a4c0_17_3_1_3
   - p0_17_4 * a4c0_17_4_1_3 - p0_17_5 * a4c0_17_5_1_3
   - p0_17_6 * a4c0_17_6_1_3 - p0_17_7 * a4c0_17_7_1_3
   - p0_17_8 * a4c0_17_8_1_3 - p0_17_9 * a4c0_17_9_1_3
   - p0_17_10 * a4c0_17_10_1_3 - p0_17_11 * a4c0_17_11_1_3
   - p0_17_12 * a4c0_17_12_1_3 - p0_17_13 * a4c0_17_13_1_3 ] = 0
 qc219: p4a1_17_2_0 + [ - p0_17_0 * a4c0_17_0_2_0 - p0_17_1 * a4c0_17_1_2_0
   - p0_17_2 * a4c0_17_2_2_0 - p0_17_3 * a4c0_17_3_2_0
   - p0_17_4 * a4c0_17_4_2_0 - p0_17_5 * a4c0_17_5_2_0
   - p0_17_6 * a4c0_17_6_2_0 - p0_17_7 * a4c0_17_7_2_0
   - p0_17_8 * a4c0_17_8_2_0 - p0_17_9 * a4c0_17_9_2_0
   - p0_17_10 * a4c0_17_10_2_0 - p0_17_11 * a4c0_17_11_2_0
   - p0_17_12 * a4c0_17_12_2_0 - p0_17_13 * a4c0_17_13_2_0 ] = 0
 qc220: p4a1_17_2_1 + [ - p0_17_0 * a4c0_17_0_2_1 - p0_17_1 * a4c0_17_1_2_1
   - p0_17_2 * a4c0_17_2_2_1 - p0_17_3 * a4c0_17_3_2_1
   - p0_17_4 * a4c0_17_4_2_1 - p0_17_5 * a4c0_17_5_2_1
   - p0_17_6 * a4c0_17_6_2_1 - p0_17_7 * a4c0_17_7_2_1
   - p0_17_8 * a4c0_17_8_2_1 - p0_17_9 * a4c0_17_9_2_1
   - p0_17_10 * a4c0_17_10_2_1 - p0_17_11 * a4c0_17_11_2_1
   - p0_17_12 * a4c0_17_12_2_1 - p0_17_13 * a4c0_17_13_2_1 ] = 0
 qc221: p4a1_17_2_2 + [ - p0_17_0 * a4c0_17_0_2_2 - p0_17_1 * a4c0_17_1_2_2
   - p0_17_2 * a4c0_17_2_2_2 - p0_17_3 * a4c0_17_3_2_2
   - p0_17_4 * a4c0_17_4_2_2 - p0_17_5 * a4c0_17_5_2_2
   - p0_17_6 * a4c0_17_6_2_2 - p0_17_7 * a4c0_17_7_2_2
   - p0_17_8 * a4c0_17_8_2_2 - p0_17_9 * a4c0_17_9_2_2
   - p0_17_10 * a4c0_17_10_2_2 - p0_17_11 * a4c0_17_11_2_2
   - p0_17_12 * a4c0_17_12_2_2 - p0_17_13 * a4c0_17_13_2_2 ] = 0
 qc222: p4a1_17_2_3 + [ - p0_17_0 * a4c0_17_0_2_3 - p0_17_1 * a4c0_17_1_2_3
   - p0_17_2 * a4c0_17_2_2_3 - p0_17_3 * a4c0_17_3_2_3
   - p0_17_4 * a4c0_17_4_2_3 - p0_17_5 * a4c0_17_5_2_3
   - p0_17_6 * a4c0_17_6_2_3 - p0_17_7 * a4c0_17_7_2_3
   - p0_17_8 * a4c0_17_8_2_3 - p0_17_9 * a4c0_17_9_2_3
   - p0_17_10 * a4c0_17_10_2_3 - p0_17_11 * a4c0_17_11_2_3
   - p0_17_12 * a4c0_17_12_2_3 - p0_17_13 * a4c0_17_13_2_3 ] = 0
 qc223: q4t1_17_0_0 + [ - p4a1_17_1_2 * p4a1_17_1_3 ] = 0
 qc224: q4t1_17_0_1 + [ - p4a1_17_1_0 * p4a1_17_1_3 ] = 0
 qc225: q4t1_17_0_2 + [ - p4a1_17_1_0 * p4a1_17_1_1 ] = 0
 qc226: q4t1_17_0_3 + [ - p4a1_17_1_1 * p4a1_17_1_3 ] = 0
 qc227: q4t1_17_0_4 + [ - p4a1_17_1_1 * p4a1_17_1_2 ] = 0
 qc228: p1_17_3 - p4a1_17_1_0 - p4a1_17_1_1 - q4t1_17_0_0 - 2 q4t1_17_0_1
   - q4t1_17_0_2 + [ p4a1_17_1_0 * q4t1_17_0_0 + p4a1_17_1_1 * q4t1_17_0_0
   + 2 p4a1_17_1_3 * q4t1_17_0_2 - q4t1_17_0_1 * q4t1_17_0_4 ] = 0
 qc229: p1_17_4 - p4a1_17_1_2 - p4a1_17_1_3 + q4t1_17_0_0 - q4t1_17_0_2 + [
   p4a1_17_1_2 * q4t1_17_0_2 + p4a1_17_1_3 * q4t1_17_0_2
   - q4t1_17_0_0 * q4t1_17_0_2 ] = 0
 qc230: med4a1_17_0 + [ - p4a1_17_1_0 * q4t1_17_0_3
   - p4a1_17_1_2 * q4t1_17_0_2 - p4a1_17_1_2 * q4t1_17_0_3
   - p4a1_17_1_3 * q4t1_17_0_2 + 2 q4t1_17_0_0 * q4t1_17_0_2 ] = 0
 qc231: q4t1_17_1_0 + [ - p4a1_17_2_2 * p4a1_17_2_3 ] = 0
 qc232: q4t1_17_1_1 + [ - p4a1_17_2_0 * p4a1_17_2_3 ] = 0
 qc233: q4t1_17_1_2 + [ - p4a1_17_2_0 * p4a1_17_2_1 ] = 0
 qc234: q4t1_17_1_3 + [ - p4a1_17_2_1 * p4a1_17_2_3 ] = 0
 qc235: q4t1_17_1_4 + [ - p4a1_17_2_1 * p4a1_17_2_2 ] = 0
 qc236: p1_17_5 - p4a1_17_2_0 - p4a1_17_2_1 - q4t1_17_1_0 - 2 q4t1_17_1_1
   - q4t1_17_1_2 + [ p4a1_17_2_0 * q4t1_17_1_0 + p4a1_17_2_1 * q4t1_17_1_0
   + 2 p4a1_17_2_3 * q4t1_17_1_2 - q4t1_17_1_1 * q4t1_17_1_4 ] = 0
 qc237: p1_17_6 - p4a1_17_2_2 - p4a1_17_2_3 + q4t1_17_1_0 - q4t1_17_1_2 + [
   p4a1_17_2_2 * q4t1_17_1_2 + p4a1_17_2_3 * q4t1_17_1_2
   - q4t1_17_1_0 * q4t1_17_1_2 ] = 0
 qc238: med4a1_17_1 + [ - p4a1_17_2_0 * q4t1_17_1_3
   - p4a1_17_2_2 * q4t1_17_1_2 - p4a1_17_2_2 * q4t1_17_1_3
   - p4a1_17_2_3 * q4t1_17_1_2 + 2 q4t1_17_1_0 * q4t1_17_1_2 ] = 0
 qc239: p3a1_17_1_0 + [ - p0_17_0 * a3c0_17_0_1_0 - p0_17_1 * a3c0_17_1_1_0
   - p0_17_2 * a3c0_17_2_1_0 - p0_17_3 * a3c0_17_3_1_0
   - p0_17_4 * a3c0_17_4_1_0 - p0_17_5 * a3c0_17_5_1_0
   - p0_17_6 * a3c0_17_6_1_0 - p0_17_7 * a3c0_17_7_1_0
   - p0_17_8 * a3c0_17_8_1_0 - p0_17_9 * a3c0_17_9_1_0
   - p0_17_10 * a3c0_17_10_1_0 - p0_17_11 * a3c0_17_11_1_0
   - p0_17_12 * a3c0_17_12_1_0 - p0_17_13 * a3c0_17_13_1_0 ] = 0
 qc240: p3a1_17_1_1 + [ - p0_17_0 * a3c0_17_0_1_1 - p0_17_1 * a3c0_17_1_1_1
   - p0_17_2 * a3c0_17_2_1_1 - p0_17_3 * a3c0_17_3_1_1
   - p0_17_4 * a3c0_17_4_1_1 - p0_17_5 * a3c0_17_5_1_1
   - p0_17_6 * a3c0_17_6_1_1 - p0_17_7 * a3c0_17_7_1_1
   - p0_17_8 * a3c0_17_8_1_1 - p0_17_9 * a3c0_17_9_1_1
   - p0_17_10 * a3c0_17_10_1_1 - p0_17_11 * a3c0_17_11_1_1
   - p0_17_12 * a3c0_17_12_1_1 - p0_17_13 * a3c0_17_13_1_1 ] = 0
 qc241: p3a1_17_1_2 + [ - p0_17_0 * a3c0_17_0_1_2 - p0_17_1 * a3c0_17_1_1_2
   - p0_17_2 * a3c0_17_2_1_2 - p0_17_3 * a3c0_17_3_1_2
   - p0_17_4 * a3c0_17_4_1_2 - p0_17_5 * a3c0_17_5_1_2
   - p0_17_6 * a3c0_17_6_1_2 - p0_17_7 * a3c0_17_7_1_2
   - p0_17_8 * a3c0_17_8_1_2 - p0_17_9 * a3c0_17_9_1_2
   - p0_17_10 * a3c0_17_10_1_2 - p0_17_11 * a3c0_17_11_1_2
   - p0_17_12 * a3c0_17_12_1_2 - p0_17_13 * a3c0_17_13_1_2 ] = 0
 qc242: q3t1_17_0_0 + [ - p3a1_17_1_0 * p3a1_17_1_1 ] = 0
 qc243: p1_17_7 - p3a1_17_1_0 - p3a1_17_1_1 + q3t1_17_0_0 + [ ] = 0
 qc244: p1_17_8 - p3a1_17_1_2 - q3t1_17_0_0 + [ p3a1_17_1_2 * q3t1_17_0_0 ]
   = 0
 qc245: med3a1_17_0 + [ - p3a1_17_1_2 * q3t1_17_0_0 ] = 0
 qc246: p4a1_18_1_0 + [ - p0_18_0 * a4c0_18_0_1_0 - p0_18_1 * a4c0_18_1_1_0
   - p0_18_2 * a4c0_18_2_1_0 - p0_18_3 * a4c0_18_3_1_0
   - p0_18_4 * a4c0_18_4_1_0 - p0_18_5 * a4c0_18_5_1_0
   - p0_18_6 * a4c0_18_6_1_0 - p0_18_7 * a4c0_18_7_1_0
   - p0_18_8 * a4c0_18_8_1_0 - p0_18_9 * a4c0_18_9_1_0
   - p0_18_10 * a4c0_18_10_1_0 - p0_18_11 * a4c0_18_11_1_0
   - p0_18_12 * a4c0_18_12_1_0 - p0_18_13 * a4c0_18_13_1_0
   - p0_18_14 * a4c0_18_14_1_0 ] = 0
 qc247: p4a1_18_1_1 + [ - p0_18_0 * a4c0_18_0_1_1 - p0_18_1 * a4c0_18_1_1_1
   - p0_18_2 * a4c0_18_2_1_1 - p0_18_3 * a4c0_18_3_1_1
   - p0_18_4 * a4c0_18_4_1_1 - p0_18_5 * a4c0_18_5_1_1
   - p0_18_6 * a4c0_18_6_1_1 - p0_18_7 * a4c0_18_7_1_1
   - p0_18_8 * a4c0_18_8_1_1 - p0_18_9 * a4c0_18_9_1_1
   - p0_18_10 * a4c0_18_10_1_1 - p0_18_11 * a4c0_18_11_1_1
   - p0_18_12 * a4c0_18_12_1_1 - p0_18_13 * a4c0_18_13_1_1
   - p0_18_14 * a4c0_18_14_1_1 ] = 0
 qc248: p4a1_18_1_2 + [ - p0_18_0 * a4c0_18_0_1_2 - p0_18_1 * a4c0_18_1_1_2
   - p0_18_2 * a4c0_18_2_1_2 - p0_18_3 * a4c0_18_3_1_2
   - p0_18_4 * a4c0_18_4_1_2 - p0_18_5 * a4c0_18_5_1_2
   - p0_18_6 * a4c0_18_6_1_2 - p0_18_7 * a4c0_18_7_1_2
   - p0_18_8 * a4c0_18_8_1_2 - p0_18_9 * a4c0_18_9_1_2
   - p0_18_10 * a4c0_18_10_1_2 - p0_18_11 * a4c0_18_11_1_2
   - p0_18_12 * a4c0_18_12_1_2 - p0_18_13 * a4c0_18_13_1_2
   - p0_18_14 * a4c0_18_14_1_2 ] = 0
 qc249: p4a1_18_1_3 + [ - p0_18_0 * a4c0_18_0_1_3 - p0_18_1 * a4c0_18_1_1_3
   - p0_18_2 * a4c0_18_2_1_3 - p0_18_3 * a4c0_18_3_1_3
   - p0_18_4 * a4c0_18_4_1_3 - p0_18_5 * a4c0_18_5_1_3
   - p0_18_6 * a4c0_18_6_1_3 - p0_18_7 * a4c0_18_7_1_3
   - p0_18_8 * a4c0_18_8_1_3 - p0_18_9 * a4c0_18_9_1_3
   - p0_18_10 * a4c0_18_10_1_3 - p0_18_11 * a4c0_18_11_1_3
   - p0_18_12 * a4c0_18_12_1_3 - p0_18_13 * a4c0_18_13_1_3
   - p0_18_14 * a4c0_18_14_1_3 ] = 0
 qc250: p4a1_18_2_0 + [ - p0_18_0 * a4c0_18_0_2_0 - p0_18_1 * a4c0_18_1_2_0
   - p0_18_2 * a4c0_18_2_2_0 - p0_18_3 * a4c0_18_3_2_0
   - p0_18_4 * a4c0_18_4_2_0 - p0_18_5 * a4c0_18_5_2_0
   - p0_18_6 * a4c0_18_6_2_0 - p0_18_7 * a4c0_18_7_2_0
   - p0_18_8 * a4c0_18_8_2_0 - p0_18_9 * a4c0_18_9_2_0
   - p0_18_10 * a4c0_18_10_2_0 - p0_18_11 * a4c0_18_11_2_0
   - p0_18_12 * a4c0_18_12_2_0 - p0_18_13 * a4c0_18_13_2_0
   - p0_18_14 * a4c0_18_14_2_0 ] = 0
 qc251: p4a1_18_2_1 + [ - p0_18_0 * a4c0_18_0_2_1 - p0_18_1 * a4c0_18_1_2_1
   - p0_18_2 * a4c0_18_2_2_1 - p0_18_3 * a4c0_18_3_2_1
   - p0_18_4 * a4c0_18_4_2_1 - p0_18_5 * a4c0_18_5_2_1
   - p0_18_6 * a4c0_18_6_2_1 - p0_18_7 * a4c0_18_7_2_1
   - p0_18_8 * a4c0_18_8_2_1 - p0_18_9 * a4c0_18_9_2_1
   - p0_18_10 * a4c0_18_10_2_1 - p0_18_11 * a4c0_18_11_2_1
   - p0_18_12 * a4c0_18_12_2_1 - p0_18_13 * a4c0_18_13_2_1
   - p0_18_14 * a4c0_18_14_2_1 ] = 0
 qc252: p4a1_18_2_2 + [ - p0_18_0 * a4c0_18_0_2_2 - p0_18_1 * a4c0_18_1_2_2
   - p0_18_2 * a4c0_18_2_2_2 - p0_18_3 * a4c0_18_3_2_2
   - p0_18_4 * a4c0_18_4_2_2 - p0_18_5 * a4c0_18_5_2_2
   - p0_18_6 * a4c0_18_6_2_2 - p0_18_7 * a4c0_18_7_2_2
   - p0_18_8 * a4c0_18_8_2_2 - p0_18_9 * a4c0_18_9_2_2
   - p0_18_10 * a4c0_18_10_2_2 - p0_18_11 * a4c0_18_11_2_2
   - p0_18_12 * a4c0_18_12_2_2 - p0_18_13 * a4c0_18_13_2_2
   - p0_18_14 * a4c0_18_14_2_2 ] = 0
 qc253: p4a1_18_2_3 + [ - p0_18_0 * a4c0_18_0_2_3 - p0_18_1 * a4c0_18_1_2_3
   - p0_18_2 * a4c0_18_2_2_3 - p0_18_3 * a4c0_18_3_2_3
   - p0_18_4 * a4c0_18_4_2_3 - p0_18_5 * a4c0_18_5_2_3
   - p0_18_6 * a4c0_18_6_2_3 - p0_18_7 * a4c0_18_7_2_3
   - p0_18_8 * a4c0_18_8_2_3 - p0_18_9 * a4c0_18_9_2_3
   - p0_18_10 * a4c0_18_10_2_3 - p0_18_11 * a4c0_18_11_2_3
   - p0_18_12 * a4c0_18_12_2_3 - p0_18_13 * a4c0_18_13_2_3
   - p0_18_14 * a4c0_18_14_2_3 ] = 0
 qc254: p4a1_18_3_0 + [ - p0_18_0 * a4c0_18_0_3_0 - p0_18_1 * a4c0_18_1_3_0
   - p0_18_2 * a4c0_18_2_3_0 - p0_18_3 * a4c0_18_3_3_0
   - p0_18_4 * a4c0_18_4_3_0 - p0_18_5 * a4c0_18_5_3_0
   - p0_18_6 * a4c0_18_6_3_0 - p0_18_7 * a4c0_18_7_3_0
   - p0_18_8 * a4c0_18_8_3_0 - p0_18_9 * a4c0_18_9_3_0
   - p0_18_10 * a4c0_18_10_3_0 - p0_18_11 * a4c0_18_11_3_0
   - p0_18_12 * a4c0_18_12_3_0 - p0_18_13 * a4c0_18_13_3_0
   - p0_18_14 * a4c0_18_14_3_0 ] = 0
 qc255: p4a1_18_3_1 + [ - p0_18_0 * a4c0_18_0_3_1 - p0_18_1 * a4c0_18_1_3_1
   - p0_18_2 * a4c0_18_2_3_1 - p0_18_3 * a4c0_18_3_3_1
   - p0_18_4 * a4c0_18_4_3_1 - p0_18_5 * a4c0_18_5_3_1
   - p0_18_6 * a4c0_18_6_3_1 - p0_18_7 * a4c0_18_7_3_1
   - p0_18_8 * a4c0_18_8_3_1 - p0_18_9 * a4c0_18_9_3_1
   - p0_18_10 * a4c0_18_10_3_1 - p0_18_11 * a4c0_18_11_3_1
   - p0_18_12 * a4c0_18_12_3_1 - p0_18_13 * a4c0_18_13_3_1
   - p0_18_14 * a4c0_18_14_3_1 ] = 0
 qc256: p4a1_18_3_2 + [ - p0_18_0 * a4c0_18_0_3_2 - p0_18_1 * a4c0_18_1_3_2
   - p0_18_2 * a4c0_18_2_3_2 - p0_18_3 * a4c0_18_3_3_2
   - p0_18_4 * a4c0_18_4_3_2 - p0_18_5 * a4c0_18_5_3_2
   - p0_18_6 * a4c0_18_6_3_2 - p0_18_7 * a4c0_18_7_3_2
   - p0_18_8 * a4c0_18_8_3_2 - p0_18_9 * a4c0_18_9_3_2
   - p0_18_10 * a4c0_18_10_3_2 - p0_18_11 * a4c0_18_11_3_2
   - p0_18_12 * a4c0_18_12_3_2 - p0_18_13 * a4c0_18_13_3_2
   - p0_18_14 * a4c0_18_14_3_2 ] = 0
 qc257: p4a1_18_3_3 + [ - p0_18_0 * a4c0_18_0_3_3 - p0_18_1 * a4c0_18_1_3_3
   - p0_18_2 * a4c0_18_2_3_3 - p0_18_3 * a4c0_18_3_3_3
   - p0_18_4 * a4c0_18_4_3_3 - p0_18_5 * a4c0_18_5_3_3
   - p0_18_6 * a4c0_18_6_3_3 - p0_18_7 * a4c0_18_7_3_3
   - p0_18_8 * a4c0_18_8_3_3 - p0_18_9 * a4c0_18_9_3_3
   - p0_18_10 * a4c0_18_10_3_3 - p0_18_11 * a4c0_18_11_3_3
   - p0_18_12 * a4c0_18_12_3_3 - p0_18_13 * a4c0_18_13_3_3
   - p0_18_14 * a4c0_18_14_3_3 ] = 0
 qc258: q4t1_18_0_0 + [ - p4a1_18_1_2 * p4a1_18_1_3 ] = 0
 qc259: q4t1_18_0_1 + [ - p4a1_18_1_0 * p4a1_18_1_3 ] = 0
 qc260: q4t1_18_0_2 + [ - p4a1_18_1_0 * p4a1_18_1_1 ] = 0
 qc261: q4t1_18_0_3 + [ - p4a1_18_1_1 * p4a1_18_1_3 ] = 0
 qc262: q4t1_18_0_4 + [ - p4a1_18_1_1 * p4a1_18_1_2 ] = 0
 qc263: p1_18_0 - p4a1_18_1_0 - p4a1_18_1_1 - q4t1_18_0_0 - 2 q4t1_18_0_1
   - q4t1_18_0_2 + [ p4a1_18_1_0 * q4t1_18_0_0 + p4a1_18_1_1 * q4t1_18_0_0
   + 2 p4a1_18_1_3 * q4t1_18_0_2 - q4t1_18_0_1 * q4t1_18_0_4 ] = 0
 qc264: p1_18_1 - p4a1_18_1_2 - p4a1_18_1_3 + q4t1_18_0_0 - q4t1_18_0_2 + [
   p4a1_18_1_2 * q4t1_18_0_2 + p4a1_18_1_3 * q4t1_18_0_2
   - q4t1_18_0_0 * q4t1_18_0_2 ] = 0
 qc265: med4a1_18_0 + [ - p4a1_18_1_0 * q4t1_18_0_3
   - p4a1_18_1_2 * q4t1_18_0_2 - p4a1_18_1_2 * q4t1_18_0_3
   - p4a1_18_1_3 * q4t1_18_0_2 + 2 q4t1_18_0_0 * q4t1_18_0_2 ] = 0
 qc266: q4t1_18_1_0 + [ - p4a1_18_2_2 * p4a1_18_2_3 ] = 0
 qc267: q4t1_18_1_1 + [ - p4a1_18_2_0 * p4a1_18_2_3 ] = 0
 qc268: q4t1_18_1_2 + [ - p4a1_18_2_0 * p4a1_18_2_1 ] = 0
 qc269: q4t1_18_1_3 + [ - p4a1_18_2_1 * p4a1_18_2_3 ] = 0
 qc270: q4t1_18_1_4 + [ - p4a1_18_2_1 * p4a1_18_2_2 ] = 0
 qc271: p1_18_2 - p4a1_18_2_0 - p4a1_18_2_1 - q4t1_18_1_0 - 2 q4t1_18_1_1
   - q4t1_18_1_2 + [ p4a1_18_2_0 * q4t1_18_1_0 + p4a1_18_2_1 * q4t1_18_1_0
   + 2 p4a1_18_2_3 * q4t1_18_1_2 - q4t1_18_1_1 * q4t1_18_1_4 ] = 0
 qc272: p1_18_3 - p4a1_18_2_2 - p4a1_18_2_3 + q4t1_18_1_0 - q4t1_18_1_2 + [
   p4a1_18_2_2 * q4t1_18_1_2 + p4a1_18_2_3 * q4t1_18_1_2
   - q4t1_18_1_0 * q4t1_18_1_2 ] = 0
 qc273: med4a1_18_1 + [ - p4a1_18_2_0 * q4t1_18_1_3
   - p4a1_18_2_2 * q4t1_18_1_2 - p4a1_18_2_2 * q4t1_18_1_3
   - p4a1_18_2_3 * q4t1_18_1_2 + 2 q4t1_18_1_0 * q4t1_18_1_2 ] = 0
 qc274: q4t1_18_2_0 + [ - p4a1_18_3_2 * p4a1_18_3_3 ] = 0
 qc275: q4t1_18_2_1 + [ - p4a1_18_3_0 * p4a1_18_3_3 ] = 0
 qc276: q4t1_18_2_2 + [ - p4a1_18_3_0 * p4a1_18_3_1 ] = 0
 qc277: q4t1_18_2_3 + [ - p4a1_18_3_1 * p4a1_18_3_3 ] = 0
 qc278: q4t1_18_2_4 + [ - p4a1_18_3_1 * p4a1_18_3_2 ] = 0
 qc279: p1_18_4 - p4a1_18_3_0 - p4a1_18_3_1 - q4t1_18_2_0 - 2 q4t1_18_2_1
   - q4t1_18_2_2 + [ p4a1_18_3_0 * q4t1_18_2_0 + p4a1_18_3_1 * q4t1_18_2_0
   + 2 p4a1_18_3_3 * q4t1_18_2_2 - q4t1_18_2_1 * q4t1_18_2_4 ] = 0
 qc280: p1_18_5 - p4a1_18_3_2 - p4a1_18_3_3 + q4t1_18_2_0 - q4t1_18_2_2 + [
   p4a1_18_3_2 * q4t1_18_2_2 + p4a1_18_3_3 * q4t1_18_2_2
   - q4t1_18_2_0 * q4t1_18_2_2 ] = 0
 qc281: med4a1_18_2 + [ - p4a1_18_3_0 * q4t1_18_2_3
   - p4a1_18_3_2 * q4t1_18_2_2 - p4a1_18_3_2 * q4t1_18_2_3
   - p4a1_18_3_3 * q4t1_18_2_2 + 2 q4t1_18_2_0 * q4t1_18_2_2 ] = 0
 qc282: p3a1_18_1_0 + [ - p0_18_0 * a3c0_18_0_1_0 - p0_18_1 * a3c0_18_1_1_0
   - p0_18_2 * a3c0_18_2_1_0 - p0_18_3 * a3c0_18_3_1_0
   - p0_18_4 * a3c0_18_4_1_0 - p0_18_5 * a3c0_18_5_1_0
   - p0_18_6 * a3c0_18_6_1_0 - p0_18_7 * a3c0_18_7_1_0
   - p0_18_8 * a3c0_18_8_1_0 - p0_18_9 * a3c0_18_9_1_0
   - p0_18_10 * a3c0_18_10_1_0 - p0_18_11 * a3c0_18_11_1_0
   - p0_18_12 * a3c0_18_12_1_0 - p0_18_13 * a3c0_18_13_1_0
   - p0_18_14 * a3c0_18_14_1_0 ] = 0
 qc283: p3a1_18_1_1 + [ - p0_18_0 * a3c0_18_0_1_1 - p0_18_1 * a3c0_18_1_1_1
   - p0_18_2 * a3c0_18_2_1_1 - p0_18_3 * a3c0_18_3_1_1
   - p0_18_4 * a3c0_18_4_1_1 - p0_18_5 * a3c0_18_5_1_1
   - p0_18_6 * a3c0_18_6_1_1 - p0_18_7 * a3c0_18_7_1_1
   - p0_18_8 * a3c0_18_8_1_1 - p0_18_9 * a3c0_18_9_1_1
   - p0_18_10 * a3c0_18_10_1_1 - p0_18_11 * a3c0_18_11_1_1
   - p0_18_12 * a3c0_18_12_1_1 - p0_18_13 * a3c0_18_13_1_1
   - p0_18_14 * a3c0_18_14_1_1 ] = 0
 qc284: p3a1_18_1_2 + [ - p0_18_0 * a3c0_18_0_1_2 - p0_18_1 * a3c0_18_1_1_2
   - p0_18_2 * a3c0_18_2_1_2 - p0_18_3 * a3c0_18_3_1_2
   - p0_18_4 * a3c0_18_4_1_2 - p0_18_5 * a3c0_18_5_1_2
   - p0_18_6 * a3c0_18_6_1_2 - p0_18_7 * a3c0_18_7_1_2
   - p0_18_8 * a3c0_18_8_1_2 - p0_18_9 * a3c0_18_9_1_2
   - p0_18_10 * a3c0_18_10_1_2 - p0_18_11 * a3c0_18_11_1_2
   - p0_18_12 * a3c0_18_12_1_2 - p0_18_13 * a3c0_18_13_1_2
   - p0_18_14 * a3c0_18_14_1_2 ] = 0
 qc285: q3t1_18_0_0 + [ - p3a1_18_1_0 * p3a1_18_1_1 ] = 0
 qc286: p1_18_6 - p3a1_18_1_0 - p3a1_18_1_1 + q3t1_18_0_0 + [ ] = 0
 qc287: p1_18_7 - p3a1_18_1_2 - q3t1_18_0_0 + [ p3a1_18_1_2 * q3t1_18_0_0 ]
   = 0
 qc288: med3a1_18_0 + [ - p3a1_18_1_2 * q3t1_18_0_0 ] = 0
 qc289: p4a1_19_1_0 + [ - p0_19_0 * a4c0_19_0_1_0 - p0_19_1 * a4c0_19_1_1_0
   - p0_19_2 * a4c0_19_2_1_0 - p0_19_3 * a4c0_19_3_1_0
   - p0_19_4 * a4c0_19_4_1_0 - p0_19_5 * a4c0_19_5_1_0
   - p0_19_6 * a4c0_19_6_1_0 - p0_19_7 * a4c0_19_7_1_0
   - p0_19_8 * a4c0_19_8_1_0 - p0_19_9 * a4c0_19_9_1_0
   - p0_19_10 * a4c0_19_10_1_0 - p0_19_11 * a4c0_19_11_1_0
   - p0_19_12 * a4c0_19_12_1_0 - p0_19_13 * a4c0_19_13_1_0
   - p0_19_14 * a4c0_19_14_1_0 - p0_19_15 * a4c0_19_15_1_0 ] = 0
 qc290: p4a1_19_1_1 + [ - p0_19_0 * a4c0_19_0_1_1 - p0_19_1 * a4c0_19_1_1_1
   - p0_19_2 * a4c0_19_2_1_1 - p0_19_3 * a4c0_19_3_1_1
   - p0_19_4 * a4c0_19_4_1_1 - p0_19_5 * a4c0_19_5_1_1
   - p0_19_6 * a4c0_19_6_1_1 - p0_19_7 * a4c0_19_7_1_1
   - p0_19_8 * a4c0_19_8_1_1 - p0_19_9 * a4c0_19_9_1_1
   - p0_19_10 * a4c0_19_10_1_1 - p0_19_11 * a4c0_19_11_1_1
   - p0_19_12 * a4c0_19_12_1_1 - p0_19_13 * a4c0_19_13_1_1
   - p0_19_14 * a4c0_19_14_1_1 - p0_19_15 * a4c0_19_15_1_1 ] = 0
 qc291: p4a1_19_1_2 + [ - p0_19_0 * a4c0_19_0_1_2 - p0_19_1 * a4c0_19_1_1_2
   - p0_19_2 * a4c0_19_2_1_2 - p0_19_3 * a4c0_19_3_1_2
   - p0_19_4 * a4c0_19_4_1_2 - p0_19_5 * a4c0_19_5_1_2
   - p0_19_6 * a4c0_19_6_1_2 - p0_19_7 * a4c0_19_7_1_2
   - p0_19_8 * a4c0_19_8_1_2 - p0_19_9 * a4c0_19_9_1_2
   - p0_19_10 * a4c0_19_10_1_2 - p0_19_11 * a4c0_19_11_1_2
   - p0_19_12 * a4c0_19_12_1_2 - p0_19_13 * a4c0_19_13_1_2
   - p0_19_14 * a4c0_19_14_1_2 - p0_19_15 * a4c0_19_15_1_2 ] = 0
 qc292: p4a1_19_1_3 + [ - p0_19_0 * a4c0_19_0_1_3 - p0_19_1 * a4c0_19_1_1_3
   - p0_19_2 * a4c0_19_2_1_3 - p0_19_3 * a4c0_19_3_1_3
   - p0_19_4 * a4c0_19_4_1_3 - p0_19_5 * a4c0_19_5_1_3
   - p0_19_6 * a4c0_19_6_1_3 - p0_19_7 * a4c0_19_7_1_3
   - p0_19_8 * a4c0_19_8_1_3 - p0_19_9 * a4c0_19_9_1_3
   - p0_19_10 * a4c0_19_10_1_3 - p0_19_11 * a4c0_19_11_1_3
   - p0_19_12 * a4c0_19_12_1_3 - p0_19_13 * a4c0_19_13_1_3
   - p0_19_14 * a4c0_19_14_1_3 - p0_19_15 * a4c0_19_15_1_3 ] = 0
 qc293: p4a1_19_2_0 + [ - p0_19_0 * a4c0_19_0_2_0 - p0_19_1 * a4c0_19_1_2_0
   - p0_19_2 * a4c0_19_2_2_0 - p0_19_3 * a4c0_19_3_2_0
   - p0_19_4 * a4c0_19_4_2_0 - p0_19_5 * a4c0_19_5_2_0
   - p0_19_6 * a4c0_19_6_2_0 - p0_19_7 * a4c0_19_7_2_0
   - p0_19_8 * a4c0_19_8_2_0 - p0_19_9 * a4c0_19_9_2_0
   - p0_19_10 * a4c0_19_10_2_0 - p0_19_11 * a4c0_19_11_2_0
   - p0_19_12 * a4c0_19_12_2_0 - p0_19_13 * a4c0_19_13_2_0
   - p0_19_14 * a4c0_19_14_2_0 - p0_19_15 * a4c0_19_15_2_0 ] = 0
 qc294: p4a1_19_2_1 + [ - p0_19_0 * a4c0_19_0_2_1 - p0_19_1 * a4c0_19_1_2_1
   - p0_19_2 * a4c0_19_2_2_1 - p0_19_3 * a4c0_19_3_2_1
   - p0_19_4 * a4c0_19_4_2_1 - p0_19_5 * a4c0_19_5_2_1
   - p0_19_6 * a4c0_19_6_2_1 - p0_19_7 * a4c0_19_7_2_1
   - p0_19_8 * a4c0_19_8_2_1 - p0_19_9 * a4c0_19_9_2_1
   - p0_19_10 * a4c0_19_10_2_1 - p0_19_11 * a4c0_19_11_2_1
   - p0_19_12 * a4c0_19_12_2_1 - p0_19_13 * a4c0_19_13_2_1
   - p0_19_14 * a4c0_19_14_2_1 - p0_19_15 * a4c0_19_15_2_1 ] = 0
 qc295: p4a1_19_2_2 + [ - p0_19_0 * a4c0_19_0_2_2 - p0_19_1 * a4c0_19_1_2_2
   - p0_19_2 * a4c0_19_2_2_2 - p0_19_3 * a4c0_19_3_2_2
   - p0_19_4 * a4c0_19_4_2_2 - p0_19_5 * a4c0_19_5_2_2
   - p0_19_6 * a4c0_19_6_2_2 - p0_19_7 * a4c0_19_7_2_2
   - p0_19_8 * a4c0_19_8_2_2 - p0_19_9 * a4c0_19_9_2_2
   - p0_19_10 * a4c0_19_10_2_2 - p0_19_11 * a4c0_19_11_2_2
   - p0_19_12 * a4c0_19_12_2_2 - p0_19_13 * a4c0_19_13_2_2
   - p0_19_14 * a4c0_19_14_2_2 - p0_19_15 * a4c0_19_15_2_2 ] = 0
 qc296: p4a1_19_2_3 + [ - p0_19_0 * a4c0_19_0_2_3 - p0_19_1 * a4c0_19_1_2_3
   - p0_19_2 * a4c0_19_2_2_3 - p0_19_3 * a4c0_19_3_2_3
   - p0_19_4 * a4c0_19_4_2_3 - p0_19_5 * a4c0_19_5_2_3
   - p0_19_6 * a4c0_19_6_2_3 - p0_19_7 * a4c0_19_7_2_3
   - p0_19_8 * a4c0_19_8_2_3 - p0_19_9 * a4c0_19_9_2_3
   - p0_19_10 * a4c0_19_10_2_3 - p0_19_11 * a4c0_19_11_2_3
   - p0_19_12 * a4c0_19_12_2_3 - p0_19_13 * a4c0_19_13_2_3
   - p0_19_14 * a4c0_19_14_2_3 - p0_19_15 * a4c0_19_15_2_3 ] = 0
 qc297: p4a1_19_3_0 + [ - p0_19_0 * a4c0_19_0_3_0 - p0_19_1 * a4c0_19_1_3_0
   - p0_19_2 * a4c0_19_2_3_0 - p0_19_3 * a4c0_19_3_3_0
   - p0_19_4 * a4c0_19_4_3_0 - p0_19_5 * a4c0_19_5_3_0
   - p0_19_6 * a4c0_19_6_3_0 - p0_19_7 * a4c0_19_7_3_0
   - p0_19_8 * a4c0_19_8_3_0 - p0_19_9 * a4c0_19_9_3_0
   - p0_19_10 * a4c0_19_10_3_0 - p0_19_11 * a4c0_19_11_3_0
   - p0_19_12 * a4c0_19_12_3_0 - p0_19_13 * a4c0_19_13_3_0
   - p0_19_14 * a4c0_19_14_3_0 - p0_19_15 * a4c0_19_15_3_0 ] = 0
 qc298: p4a1_19_3_1 + [ - p0_19_0 * a4c0_19_0_3_1 - p0_19_1 * a4c0_19_1_3_1
   - p0_19_2 * a4c0_19_2_3_1 - p0_19_3 * a4c0_19_3_3_1
   - p0_19_4 * a4c0_19_4_3_1 - p0_19_5 * a4c0_19_5_3_1
   - p0_19_6 * a4c0_19_6_3_1 - p0_19_7 * a4c0_19_7_3_1
   - p0_19_8 * a4c0_19_8_3_1 - p0_19_9 * a4c0_19_9_3_1
   - p0_19_10 * a4c0_19_10_3_1 - p0_19_11 * a4c0_19_11_3_1
   - p0_19_12 * a4c0_19_12_3_1 - p0_19_13 * a4c0_19_13_3_1
   - p0_19_14 * a4c0_19_14_3_1 - p0_19_15 * a4c0_19_15_3_1 ] = 0
 qc299: p4a1_19_3_2 + [ - p0_19_0 * a4c0_19_0_3_2 - p0_19_1 * a4c0_19_1_3_2
   - p0_19_2 * a4c0_19_2_3_2 - p0_19_3 * a4c0_19_3_3_2
   - p0_19_4 * a4c0_19_4_3_2 - p0_19_5 * a4c0_19_5_3_2
   - p0_19_6 * a4c0_19_6_3_2 - p0_19_7 * a4c0_19_7_3_2
   - p0_19_8 * a4c0_19_8_3_2 - p0_19_9 * a4c0_19_9_3_2
   - p0_19_10 * a4c0_19_10_3_2 - p0_19_11 * a4c0_19_11_3_2
   - p0_19_12 * a4c0_19_12_3_2 - p0_19_13 * a4c0_19_13_3_2
   - p0_19_14 * a4c0_19_14_3_2 - p0_19_15 * a4c0_19_15_3_2 ] = 0
 qc300: p4a1_19_3_3 + [ - p0_19_0 * a4c0_19_0_3_3 - p0_19_1 * a4c0_19_1_3_3
   - p0_19_2 * a4c0_19_2_3_3 - p0_19_3 * a4c0_19_3_3_3
   - p0_19_4 * a4c0_19_4_3_3 - p0_19_5 * a4c0_19_5_3_3
   - p0_19_6 * a4c0_19_6_3_3 - p0_19_7 * a4c0_19_7_3_3
   - p0_19_8 * a4c0_19_8_3_3 - p0_19_9 * a4c0_19_9_3_3
   - p0_19_10 * a4c0_19_10_3_3 - p0_19_11 * a4c0_19_11_3_3
   - p0_19_12 * a4c0_19_12_3_3 - p0_19_13 * a4c0_19_13_3_3
   - p0_19_14 * a4c0_19_14_3_3 - p0_19_15 * a4c0_19_15_3_3 ] = 0
 qc301: p4a1_19_4_0 + [ - p0_19_0 * a4c0_19_0_4_0 - p0_19_1 * a4c0_19_1_4_0
   - p0_19_2 * a4c0_19_2_4_0 - p0_19_3 * a4c0_19_3_4_0
   - p0_19_4 * a4c0_19_4_4_0 - p0_19_5 * a4c0_19_5_4_0
   - p0_19_6 * a4c0_19_6_4_0 - p0_19_7 * a4c0_19_7_4_0
   - p0_19_8 * a4c0_19_8_4_0 - p0_19_9 * a4c0_19_9_4_0
   - p0_19_10 * a4c0_19_10_4_0 - p0_19_11 * a4c0_19_11_4_0
   - p0_19_12 * a4c0_19_12_4_0 - p0_19_13 * a4c0_19_13_4_0
   - p0_19_14 * a4c0_19_14_4_0 - p0_19_15 * a4c0_19_15_4_0 ] = 0
 qc302: p4a1_19_4_1 + [ - p0_19_0 * a4c0_19_0_4_1 - p0_19_1 * a4c0_19_1_4_1
   - p0_19_2 * a4c0_19_2_4_1 - p0_19_3 * a4c0_19_3_4_1
   - p0_19_4 * a4c0_19_4_4_1 - p0_19_5 * a4c0_19_5_4_1
   - p0_19_6 * a4c0_19_6_4_1 - p0_19_7 * a4c0_19_7_4_1
   - p0_19_8 * a4c0_19_8_4_1 - p0_19_9 * a4c0_19_9_4_1
   - p0_19_10 * a4c0_19_10_4_1 - p0_19_11 * a4c0_19_11_4_1
   - p0_19_12 * a4c0_19_12_4_1 - p0_19_13 * a4c0_19_13_4_1
   - p0_19_14 * a4c0_19_14_4_1 - p0_19_15 * a4c0_19_15_4_1 ] = 0
 qc303: p4a1_19_4_2 + [ - p0_19_0 * a4c0_19_0_4_2 - p0_19_1 * a4c0_19_1_4_2
   - p0_19_2 * a4c0_19_2_4_2 - p0_19_3 * a4c0_19_3_4_2
   - p0_19_4 * a4c0_19_4_4_2 - p0_19_5 * a4c0_19_5_4_2
   - p0_19_6 * a4c0_19_6_4_2 - p0_19_7 * a4c0_19_7_4_2
   - p0_19_8 * a4c0_19_8_4_2 - p0_19_9 * a4c0_19_9_4_2
   - p0_19_10 * a4c0_19_10_4_2 - p0_19_11 * a4c0_19_11_4_2
   - p0_19_12 * a4c0_19_12_4_2 - p0_19_13 * a4c0_19_13_4_2
   - p0_19_14 * a4c0_19_14_4_2 - p0_19_15 * a4c0_19_15_4_2 ] = 0
 qc304: p4a1_19_4_3 + [ - p0_19_0 * a4c0_19_0_4_3 - p0_19_1 * a4c0_19_1_4_3
   - p0_19_2 * a4c0_19_2_4_3 - p0_19_3 * a4c0_19_3_4_3
   - p0_19_4 * a4c0_19_4_4_3 - p0_19_5 * a4c0_19_5_4_3
   - p0_19_6 * a4c0_19_6_4_3 - p0_19_7 * a4c0_19_7_4_3
   - p0_19_8 * a4c0_19_8_4_3 - p0_19_9 * a4c0_19_9_4_3
   - p0_19_10 * a4c0_19_10_4_3 - p0_19_11 * a4c0_19_11_4_3
   - p0_19_12 * a4c0_19_12_4_3 - p0_19_13 * a4c0_19_13_4_3
   - p0_19_14 * a4c0_19_14_4_3 - p0_19_15 * a4c0_19_15_4_3 ] = 0
 qc305: q4t1_19_0_0 + [ - p4a1_19_1_2 * p4a1_19_1_3 ] = 0
 qc306: q4t1_19_0_1 + [ - p4a1_19_1_0 * p4a1_19_1_3 ] = 0
 qc307: q4t1_19_0_2 + [ - p4a1_19_1_0 * p4a1_19_1_1 ] = 0
 qc308: q4t1_19_0_3 + [ - p4a1_19_1_1 * p4a1_19_1_3 ] = 0
 qc309: q4t1_19_0_4 + [ - p4a1_19_1_1 * p4a1_19_1_2 ] = 0
 qc310: p1_19_0 - p4a1_19_1_0 - p4a1_19_1_1 - q4t1_19_0_0 - 2 q4t1_19_0_1
   - q4t1_19_0_2 + [ p4a1_19_1_0 * q4t1_19_0_0 + p4a1_19_1_1 * q4t1_19_0_0
   + 2 p4a1_19_1_3 * q4t1_19_0_2 - q4t1_19_0_1 * q4t1_19_0_4 ] = 0
 qc311: p1_19_1 - p4a1_19_1_2 - p4a1_19_1_3 + q4t1_19_0_0 - q4t1_19_0_2 + [
   p4a1_19_1_2 * q4t1_19_0_2 + p4a1_19_1_3 * q4t1_19_0_2
   - q4t1_19_0_0 * q4t1_19_0_2 ] = 0
 qc312: med4a1_19_0 + [ - p4a1_19_1_0 * q4t1_19_0_3
   - p4a1_19_1_2 * q4t1_19_0_2 - p4a1_19_1_2 * q4t1_19_0_3
   - p4a1_19_1_3 * q4t1_19_0_2 + 2 q4t1_19_0_0 * q4t1_19_0_2 ] = 0
 qc313: q4t1_19_1_0 + [ - p4a1_19_2_2 * p4a1_19_2_3 ] = 0
 qc314: q4t1_19_1_1 + [ - p4a1_19_2_0 * p4a1_19_2_3 ] = 0
 qc315: q4t1_19_1_2 + [ - p4a1_19_2_0 * p4a1_19_2_1 ] = 0
 qc316: q4t1_19_1_3 + [ - p4a1_19_2_1 * p4a1_19_2_3 ] = 0
 qc317: q4t1_19_1_4 + [ - p4a1_19_2_1 * p4a1_19_2_2 ] = 0
 qc318: p1_19_2 - p4a1_19_2_0 - p4a1_19_2_1 - q4t1_19_1_0 - 2 q4t1_19_1_1
   - q4t1_19_1_2 + [ p4a1_19_2_0 * q4t1_19_1_0 + p4a1_19_2_1 * q4t1_19_1_0
   + 2 p4a1_19_2_3 * q4t1_19_1_2 - q4t1_19_1_1 * q4t1_19_1_4 ] = 0
 qc319: p1_19_3 - p4a1_19_2_2 - p4a1_19_2_3 + q4t1_19_1_0 - q4t1_19_1_2 + [
   p4a1_19_2_2 * q4t1_19_1_2 + p4a1_19_2_3 * q4t1_19_1_2
   - q4t1_19_1_0 * q4t1_19_1_2 ] = 0
 qc320: med4a1_19_1 + [ - p4a1_19_2_0 * q4t1_19_1_3
   - p4a1_19_2_2 * q4t1_19_1_2 - p4a1_19_2_2 * q4t1_19_1_3
   - p4a1_19_2_3 * q4t1_19_1_2 + 2 q4t1_19_1_0 * q4t1_19_1_2 ] = 0
 qc321: q4t1_19_2_0 + [ - p4a1_19_3_2 * p4a1_19_3_3 ] = 0
 qc322: q4t1_19_2_1 + [ - p4a1_19_3_0 * p4a1_19_3_3 ] = 0
 qc323: q4t1_19_2_2 + [ - p4a1_19_3_0 * p4a1_19_3_1 ] = 0
 qc324: q4t1_19_2_3 + [ - p4a1_19_3_1 * p4a1_19_3_3 ] = 0
 qc325: q4t1_19_2_4 + [ - p4a1_19_3_1 * p4a1_19_3_2 ] = 0
 qc326: p1_19_4 - p4a1_19_3_0 - p4a1_19_3_1 - q4t1_19_2_0 - 2 q4t1_19_2_1
   - q4t1_19_2_2 + [ p4a1_19_3_0 * q4t1_19_2_0 + p4a1_19_3_1 * q4t1_19_2_0
   + 2 p4a1_19_3_3 * q4t1_19_2_2 - q4t1_19_2_1 * q4t1_19_2_4 ] = 0
 qc327: p1_19_5 - p4a1_19_3_2 - p4a1_19_3_3 + q4t1_19_2_0 - q4t1_19_2_2 + [
   p4a1_19_3_2 * q4t1_19_2_2 + p4a1_19_3_3 * q4t1_19_2_2
   - q4t1_19_2_0 * q4t1_19_2_2 ] = 0
 qc328: med4a1_19_2 + [ - p4a1_19_3_0 * q4t1_19_2_3
   - p4a1_19_3_2 * q4t1_19_2_2 - p4a1_19_3_2 * q4t1_19_2_3
   - p4a1_19_3_3 * q4t1_19_2_2 + 2 q4t1_19_2_0 * q4t1_19_2_2 ] = 0
 qc329: q4t1_19_3_0 + [ - p4a1_19_4_2 * p4a1_19_4_3 ] = 0
 qc330: q4t1_19_3_1 + [ - p4a1_19_4_0 * p4a1_19_4_3 ] = 0
 qc331: q4t1_19_3_2 + [ - p4a1_19_4_0 * p4a1_19_4_1 ] = 0
 qc332: q4t1_19_3_3 + [ - p4a1_19_4_1 * p4a1_19_4_3 ] = 0
 qc333: q4t1_19_3_4 + [ - p4a1_19_4_1 * p4a1_19_4_2 ] = 0
 qc334: p1_19_6 - p4a1_19_4_0 - p4a1_19_4_1 - q4t1_19_3_0 - 2 q4t1_19_3_1
   - q4t1_19_3_2 + [ p4a1_19_4_0 * q4t1_19_3_0 + p4a1_19_4_1 * q4t1_19_3_0
   + 2 p4a1_19_4_3 * q4t1_19_3_2 - q4t1_19_3_1 * q4t1_19_3_4 ] = 0
 qc335: p1_19_7 - p4a1_19_4_2 - p4a1_19_4_3 + q4t1_19_3_0 - q4t1_19_3_2 + [
   p4a1_19_4_2 * q4t1_19_3_2 + p4a1_19_4_3 * q4t1_19_3_2
   - q4t1_19_3_0 * q4t1_19_3_2 ] = 0
 qc336: med4a1_19_3 + [ - p4a1_19_4_0 * q4t1_19_3_3
   - p4a1_19_4_2 * q4t1_19_3_2 - p4a1_19_4_2 * q4t1_19_3_3
   - p4a1_19_4_3 * q4t1_19_3_2 + 2 q4t1_19_3_0 * q4t1_19_3_2 ] = 0
 qc337: - p1_20_0 + [ p0_20_0 * rb0_20_0_0 + p0_20_1 * rb0_20_1_0
   + p0_20_2 * rb0_20_2_0 + p0_20_3 * rb0_20_3_0 + p0_20_4 * rb0_20_4_0
   + p0_20_5 * rb0_20_5_0 + p0_20_6 * rb0_20_6_0 + p0_20_7 * rb0_20_7_0
   + p0_20_8 * rb0_20_8_0 + p0_20_9 * rb0_20_9_0 + p0_20_10 * rb0_20_10_0
   + p0_20_11 * rb0_20_11_0 + p0_20_12 * rb0_20_12_0
   + p0_20_13 * rb0_20_13_0 + p0_20_14 * rb0_20_14_0 ] = 0
 qc338: - p1_20_1 + [ p0_20_0 * rb0_20_0_1 + p0_20_1 * rb0_20_1_1
   + p0_20_2 * rb0_20_2_1 + p0_20_3 * rb0_20_3_1 + p0_20_4 * rb0_20_4_1
   + p0_20_5 * rb0_20_5_1 + p0_20_6 * rb0_20_6_1 + p0_20_7 * rb0_20_7_1
   + p0_20_8 * rb0_20_8_1 + p0_20_9 * rb0_20_9_1 + p0_20_10 * rb0_20_10_1
   + p0_20_11 * rb0_20_11_1 + p0_20_12 * rb0_20_12_1
   + p0_20_13 * rb0_20_13_1 + p0_20_14 * rb0_20_14_1 ] = 0
 qc339: - p1_20_2 + [ p0_20_0 * rb0_20_0_2 + p0_20_1 * rb0_20_1_2
   + p0_20_2 * rb0_20_2_2 + p0_20_3 * rb0_20_3_2 + p0_20_4 * rb0_20_4_2
   + p0_20_5 * rb0_20_5_2 + p0_20_6 * rb0_20_6_2 + p0_20_7 * rb0_20_7_2
   + p0_20_8 * rb0_20_8_2 + p0_20_9 * rb0_20_9_2 + p0_20_10 * rb0_20_10_2
   + p0_20_11 * rb0_20_11_2 + p0_20_12 * rb0_20_12_2
   + p0_20_13 * rb0_20_13_2 + p0_20_14 * rb0_20_14_2 ] = 0
 qc340: p4a1_20_1_0 + [ - p0_20_0 * a4c0_20_0_1_0 - p0_20_1 * a4c0_20_1_1_0
   - p0_20_2 * a4c0_20_2_1_0 - p0_20_3 * a4c0_20_3_1_0
   - p0_20_4 * a4c0_20_4_1_0 - p0_20_5 * a4c0_20_5_1_0
   - p0_20_6 * a4c0_20_6_1_0 - p0_20_7 * a4c0_20_7_1_0
   - p0_20_8 * a4c0_20_8_1_0 - p0_20_9 * a4c0_20_9_1_0
   - p0_20_10 * a4c0_20_10_1_0 - p0_20_11 * a4c0_20_11_1_0
   - p0_20_12 * a4c0_20_12_1_0 - p0_20_13 * a4c0_20_13_1_0
   - p0_20_14 * a4c0_20_14_1_0 ] = 0
 qc341: p4a1_20_1_1 + [ - p0_20_0 * a4c0_20_0_1_1 - p0_20_1 * a4c0_20_1_1_1
   - p0_20_2 * a4c0_20_2_1_1 - p0_20_3 * a4c0_20_3_1_1
   - p0_20_4 * a4c0_20_4_1_1 - p0_20_5 * a4c0_20_5_1_1
   - p0_20_6 * a4c0_20_6_1_1 - p0_20_7 * a4c0_20_7_1_1
   - p0_20_8 * a4c0_20_8_1_1 - p0_20_9 * a4c0_20_9_1_1
   - p0_20_10 * a4c0_20_10_1_1 - p0_20_11 * a4c0_20_11_1_1
   - p0_20_12 * a4c0_20_12_1_1 - p0_20_13 * a4c0_20_13_1_1
   - p0_20_14 * a4c0_20_14_1_1 ] = 0
 qc342: p4a1_20_1_2 + [ - p0_20_0 * a4c0_20_0_1_2 - p0_20_1 * a4c0_20_1_1_2
   - p0_20_2 * a4c0_20_2_1_2 - p0_20_3 * a4c0_20_3_1_2
   - p0_20_4 * a4c0_20_4_1_2 - p0_20_5 * a4c0_20_5_1_2
   - p0_20_6 * a4c0_20_6_1_2 - p0_20_7 * a4c0_20_7_1_2
   - p0_20_8 * a4c0_20_8_1_2 - p0_20_9 * a4c0_20_9_1_2
   - p0_20_10 * a4c0_20_10_1_2 - p0_20_11 * a4c0_20_11_1_2
   - p0_20_12 * a4c0_20_12_1_2 - p0_20_13 * a4c0_20_13_1_2
   - p0_20_14 * a4c0_20_14_1_2 ] = 0
 qc343: p4a1_20_1_3 + [ - p0_20_0 * a4c0_20_0_1_3 - p0_20_1 * a4c0_20_1_1_3
   - p0_20_2 * a4c0_20_2_1_3 - p0_20_3 * a4c0_20_3_1_3
   - p0_20_4 * a4c0_20_4_1_3 - p0_20_5 * a4c0_20_5_1_3
   - p0_20_6 * a4c0_20_6_1_3 - p0_20_7 * a4c0_20_7_1_3
   - p0_20_8 * a4c0_20_8_1_3 - p0_20_9 * a4c0_20_9_1_3
   - p0_20_10 * a4c0_20_10_1_3 - p0_20_11 * a4c0_20_11_1_3
   - p0_20_12 * a4c0_20_12_1_3 - p0_20_13 * a4c0_20_13_1_3
   - p0_20_14 * a4c0_20_14_1_3 ] = 0
 qc344: p4a1_20_2_0 + [ - p0_20_0 * a4c0_20_0_2_0 - p0_20_1 * a4c0_20_1_2_0
   - p0_20_2 * a4c0_20_2_2_0 - p0_20_3 * a4c0_20_3_2_0
   - p0_20_4 * a4c0_20_4_2_0 - p0_20_5 * a4c0_20_5_2_0
   - p0_20_6 * a4c0_20_6_2_0 - p0_20_7 * a4c0_20_7_2_0
   - p0_20_8 * a4c0_20_8_2_0 - p0_20_9 * a4c0_20_9_2_0
   - p0_20_10 * a4c0_20_10_2_0 - p0_20_11 * a4c0_20_11_2_0
   - p0_20_12 * a4c0_20_12_2_0 - p0_20_13 * a4c0_20_13_2_0
   - p0_20_14 * a4c0_20_14_2_0 ] = 0
 qc345: p4a1_20_2_1 + [ - p0_20_0 * a4c0_20_0_2_1 - p0_20_1 * a4c0_20_1_2_1
   - p0_20_2 * a4c0_20_2_2_1 - p0_20_3 * a4c0_20_3_2_1
   - p0_20_4 * a4c0_20_4_2_1 - p0_20_5 * a4c0_20_5_2_1
   - p0_20_6 * a4c0_20_6_2_1 - p0_20_7 * a4c0_20_7_2_1
   - p0_20_8 * a4c0_20_8_2_1 - p0_20_9 * a4c0_20_9_2_1
   - p0_20_10 * a4c0_20_10_2_1 - p0_20_11 * a4c0_20_11_2_1
   - p0_20_12 * a4c0_20_12_2_1 - p0_20_13 * a4c0_20_13_2_1
   - p0_20_14 * a4c0_20_14_2_1 ] = 0
 qc346: p4a1_20_2_2 + [ - p0_20_0 * a4c0_20_0_2_2 - p0_20_1 * a4c0_20_1_2_2
   - p0_20_2 * a4c0_20_2_2_2 - p0_20_3 * a4c0_20_3_2_2
   - p0_20_4 * a4c0_20_4_2_2 - p0_20_5 * a4c0_20_5_2_2
   - p0_20_6 * a4c0_20_6_2_2 - p0_20_7 * a4c0_20_7_2_2
   - p0_20_8 * a4c0_20_8_2_2 - p0_20_9 * a4c0_20_9_2_2
   - p0_20_10 * a4c0_20_10_2_2 - p0_20_11 * a4c0_20_11_2_2
   - p0_20_12 * a4c0_20_12_2_2 - p0_20_13 * a4c0_20_13_2_2
   - p0_20_14 * a4c0_20_14_2_2 ] = 0
 qc347: p4a1_20_2_3 + [ - p0_20_0 * a4c0_20_0_2_3 - p0_20_1 * a4c0_20_1_2_3
   - p0_20_2 * a4c0_20_2_2_3 - p0_20_3 * a4c0_20_3_2_3
   - p0_20_4 * a4c0_20_4_2_3 - p0_20_5 * a4c0_20_5_2_3
   - p0_20_6 * a4c0_20_6_2_3 - p0_20_7 * a4c0_20_7_2_3
   - p0_20_8 * a4c0_20_8_2_3 - p0_20_9 * a4c0_20_9_2_3
   - p0_20_10 * a4c0_20_10_2_3 - p0_20_11 * a4c0_20_11_2_3
   - p0_20_12 * a4c0_20_12_2_3 - p0_20_13 * a4c0_20_13_2_3
   - p0_20_14 * a4c0_20_14_2_3 ] = 0
 qc348: p4a1_20_3_0 + [ - p0_20_0 * a4c0_20_0_3_0 - p0_20_1 * a4c0_20_1_3_0
   - p0_20_2 * a4c0_20_2_3_0 - p0_20_3 * a4c0_20_3_3_0
   - p0_20_4 * a4c0_20_4_3_0 - p0_20_5 * a4c0_20_5_3_0
   - p0_20_6 * a4c0_20_6_3_0 - p0_20_7 * a4c0_20_7_3_0
   - p0_20_8 * a4c0_20_8_3_0 - p0_20_9 * a4c0_20_9_3_0
   - p0_20_10 * a4c0_20_10_3_0 - p0_20_11 * a4c0_20_11_3_0
   - p0_20_12 * a4c0_20_12_3_0 - p0_20_13 * a4c0_20_13_3_0
   - p0_20_14 * a4c0_20_14_3_0 ] = 0
 qc349: p4a1_20_3_1 + [ - p0_20_0 * a4c0_20_0_3_1 - p0_20_1 * a4c0_20_1_3_1
   - p0_20_2 * a4c0_20_2_3_1 - p0_20_3 * a4c0_20_3_3_1
   - p0_20_4 * a4c0_20_4_3_1 - p0_20_5 * a4c0_20_5_3_1
   - p0_20_6 * a4c0_20_6_3_1 - p0_20_7 * a4c0_20_7_3_1
   - p0_20_8 * a4c0_20_8_3_1 - p0_20_9 * a4c0_20_9_3_1
   - p0_20_10 * a4c0_20_10_3_1 - p0_20_11 * a4c0_20_11_3_1
   - p0_20_12 * a4c0_20_12_3_1 - p0_20_13 * a4c0_20_13_3_1
   - p0_20_14 * a4c0_20_14_3_1 ] = 0
 qc350: p4a1_20_3_2 + [ - p0_20_0 * a4c0_20_0_3_2 - p0_20_1 * a4c0_20_1_3_2
   - p0_20_2 * a4c0_20_2_3_2 - p0_20_3 * a4c0_20_3_3_2
   - p0_20_4 * a4c0_20_4_3_2 - p0_20_5 * a4c0_20_5_3_2
   - p0_20_6 * a4c0_20_6_3_2 - p0_20_7 * a4c0_20_7_3_2
   - p0_20_8 * a4c0_20_8_3_2 - p0_20_9 * a4c0_20_9_3_2
   - p0_20_10 * a4c0_20_10_3_2 - p0_20_11 * a4c0_20_11_3_2
   - p0_20_12 * a4c0_20_12_3_2 - p0_20_13 * a4c0_20_13_3_2
   - p0_20_14 * a4c0_20_14_3_2 ] = 0
 qc351: p4a1_20_3_3 + [ - p0_20_0 * a4c0_20_0_3_3 - p0_20_1 * a4c0_20_1_3_3
   - p0_20_2 * a4c0_20_2_3_3 - p0_20_3 * a4c0_20_3_3_3
   - p0_20_4 * a4c0_20_4_3_3 - p0_20_5 * a4c0_20_5_3_3
   - p0_20_6 * a4c0_20_6_3_3 - p0_20_7 * a4c0_20_7_3_3
   - p0_20_8 * a4c0_20_8_3_3 - p0_20_9 * a4c0_20_9_3_3
   - p0_20_10 * a4c0_20_10_3_3 - p0_20_11 * a4c0_20_11_3_3
   - p0_20_12 * a4c0_20_12_3_3 - p0_20_13 * a4c0_20_13_3_3
   - p0_20_14 * a4c0_20_14_3_3 ] = 0
 qc352: q4t1_20_0_0 + [ - p4a1_20_1_2 * p4a1_20_1_3 ] = 0
 qc353: q4t1_20_0_1 + [ - p4a1_20_1_0 * p4a1_20_1_3 ] = 0
 qc354: q4t1_20_0_2 + [ - p4a1_20_1_0 * p4a1_20_1_1 ] = 0
 qc355: q4t1_20_0_3 + [ - p4a1_20_1_1 * p4a1_20_1_3 ] = 0
 qc356: q4t1_20_0_4 + [ - p4a1_20_1_1 * p4a1_20_1_2 ] = 0
 qc357: p1_20_3 - p4a1_20_1_0 - p4a1_20_1_1 - q4t1_20_0_0 - 2 q4t1_20_0_1
   - q4t1_20_0_2 + [ p4a1_20_1_0 * q4t1_20_0_0 + p4a1_20_1_1 * q4t1_20_0_0
   + 2 p4a1_20_1_3 * q4t1_20_0_2 - q4t1_20_0_1 * q4t1_20_0_4 ] = 0
 qc358: p1_20_4 - p4a1_20_1_2 - p4a1_20_1_3 + q4t1_20_0_0 - q4t1_20_0_2 + [
   p4a1_20_1_2 * q4t1_20_0_2 + p4a1_20_1_3 * q4t1_20_0_2
   - q4t1_20_0_0 * q4t1_20_0_2 ] = 0
 qc359: med4a1_20_0 + [ - p4a1_20_1_0 * q4t1_20_0_3
   - p4a1_20_1_2 * q4t1_20_0_2 - p4a1_20_1_2 * q4t1_20_0_3
   - p4a1_20_1_3 * q4t1_20_0_2 + 2 q4t1_20_0_0 * q4t1_20_0_2 ] = 0
 qc360: q4t1_20_1_0 + [ - p4a1_20_2_2 * p4a1_20_2_3 ] = 0
 qc361: q4t1_20_1_1 + [ - p4a1_20_2_0 * p4a1_20_2_3 ] = 0
 qc362: q4t1_20_1_2 + [ - p4a1_20_2_0 * p4a1_20_2_1 ] = 0
 qc363: q4t1_20_1_3 + [ - p4a1_20_2_1 * p4a1_20_2_3 ] = 0
 qc364: q4t1_20_1_4 + [ - p4a1_20_2_1 * p4a1_20_2_2 ] = 0
 qc365: p1_20_5 - p4a1_20_2_0 - p4a1_20_2_1 - q4t1_20_1_0 - 2 q4t1_20_1_1
   - q4t1_20_1_2 + [ p4a1_20_2_0 * q4t1_20_1_0 + p4a1_20_2_1 * q4t1_20_1_0
   + 2 p4a1_20_2_3 * q4t1_20_1_2 - q4t1_20_1_1 * q4t1_20_1_4 ] = 0
 qc366: p1_20_6 - p4a1_20_2_2 - p4a1_20_2_3 + q4t1_20_1_0 - q4t1_20_1_2 + [
   p4a1_20_2_2 * q4t1_20_1_2 + p4a1_20_2_3 * q4t1_20_1_2
   - q4t1_20_1_0 * q4t1_20_1_2 ] = 0
 qc367: med4a1_20_1 + [ - p4a1_20_2_0 * q4t1_20_1_3
   - p4a1_20_2_2 * q4t1_20_1_2 - p4a1_20_2_2 * q4t1_20_1_3
   - p4a1_20_2_3 * q4t1_20_1_2 + 2 q4t1_20_1_0 * q4t1_20_1_2 ] = 0
 qc368: q4t1_20_2_0 + [ - p4a1_20_3_2 * p4a1_20_3_3 ] = 0
 qc369: q4t1_20_2_1 + [ - p4a1_20_3_0 * p4a1_20_3_3 ] = 0
 qc370: q4t1_20_2_2 + [ - p4a1_20_3_0 * p4a1_20_3_1 ] = 0
 qc371: q4t1_20_2_3 + [ - p4a1_20_3_1 * p4a1_20_3_3 ] = 0
 qc372: q4t1_20_2_4 + [ - p4a1_20_3_1 * p4a1_20_3_2 ] = 0
 qc373: p1_20_7 - p4a1_20_3_0 - p4a1_20_3_1 - q4t1_20_2_0 - 2 q4t1_20_2_1
   - q4t1_20_2_2 + [ p4a1_20_3_0 * q4t1_20_2_0 + p4a1_20_3_1 * q4t1_20_2_0
   + 2 p4a1_20_3_3 * q4t1_20_2_2 - q4t1_20_2_1 * q4t1_20_2_4 ] = 0
 qc374: p1_20_8 - p4a1_20_3_2 - p4a1_20_3_3 + q4t1_20_2_0 - q4t1_20_2_2 + [
   p4a1_20_3_2 * q4t1_20_2_2 + p4a1_20_3_3 * q4t1_20_2_2
   - q4t1_20_2_0 * q4t1_20_2_2 ] = 0
 qc375: med4a1_20_2 + [ - p4a1_20_3_0 * q4t1_20_2_3
   - p4a1_20_3_2 * q4t1_20_2_2 - p4a1_20_3_2 * q4t1_20_2_3
   - p4a1_20_3_3 * q4t1_20_2_2 + 2 q4t1_20_2_0 * q4t1_20_2_2 ] = 0
 qc376: - p1_21_0 + [ p0_21_0 * rb0_21_0_0 + p0_21_1 * rb0_21_1_0
   + p0_21_2 * rb0_21_2_0 + p0_21_3 * rb0_21_3_0 + p0_21_4 * rb0_21_4_0
   + p0_21_5 * rb0_21_5_0 + p0_21_6 * rb0_21_6_0 + p0_21_7 * rb0_21_7_0
   + p0_21_8 * rb0_21_8_0 + p0_21_9 * rb0_21_9_0 + p0_21_10 * rb0_21_10_0
   + p0_21_11 * rb0_21_11_0 + p0_21_12 * rb0_21_12_0
   + p0_21_13 * rb0_21_13_0 ] = 0
 qc377: - p1_21_1 + [ p0_21_0 * rb0_21_0_1 + p0_21_1 * rb0_21_1_1
   + p0_21_2 * rb0_21_2_1 + p0_21_3 * rb0_21_3_1 + p0_21_4 * rb0_21_4_1
   + p0_21_5 * rb0_21_5_1 + p0_21_6 * rb0_21_6_1 + p0_21_7 * rb0_21_7_1
   + p0_21_8 * rb0_21_8_1 + p0_21_9 * rb0_21_9_1 + p0_21_10 * rb0_21_10_1
   + p0_21_11 * rb0_21_11_1 + p0_21_12 * rb0_21_12_1
   + p0_21_13 * rb0_21_13_1 ] = 0
 qc378: p4a1_21_1_0 + [ - p0_21_0 * a4c0_21_0_1_0 - p0_21_1 * a4c0_21_1_1_0
   - p0_21_2 * a4c0_21_2_1_0 - p0_21_3 * a4c0_21_3_1_0
   - p0_21_4 * a4c0_21_4_1_0 - p0_21_5 * a4c0_21_5_1_0
   - p0_21_6 * a4c0_21_6_1_0 - p0_21_7 * a4c0_21_7_1_0
   - p0_21_8 * a4c0_21_8_1_0 - p0_21_9 * a4c0_21_9_1_0
   - p0_21_10 * a4c0_21_10_1_0 - p0_21_11 * a4c0_21_11_1_0
   - p0_21_12 * a4c0_21_12_1_0 - p0_21_13 * a4c0_21_13_1_0 ] = 0
 qc379: p4a1_21_1_1 + [ - p0_21_0 * a4c0_21_0_1_1 - p0_21_1 * a4c0_21_1_1_1
   - p0_21_2 * a4c0_21_2_1_1 - p0_21_3 * a4c0_21_3_1_1
   - p0_21_4 * a4c0_21_4_1_1 - p0_21_5 * a4c0_21_5_1_1
   - p0_21_6 * a4c0_21_6_1_1 - p0_21_7 * a4c0_21_7_1_1
   - p0_21_8 * a4c0_21_8_1_1 - p0_21_9 * a4c0_21_9_1_1
   - p0_21_10 * a4c0_21_10_1_1 - p0_21_11 * a4c0_21_11_1_1
   - p0_21_12 * a4c0_21_12_1_1 - p0_21_13 * a4c0_21_13_1_1 ] = 0
 qc380: p4a1_21_1_2 + [ - p0_21_0 * a4c0_21_0_1_2 - p0_21_1 * a4c0_21_1_1_2
   - p0_21_2 * a4c0_21_2_1_2 - p0_21_3 * a4c0_21_3_1_2
   - p0_21_4 * a4c0_21_4_1_2 - p0_21_5 * a4c0_21_5_1_2
   - p0_21_6 * a4c0_21_6_1_2 - p0_21_7 * a4c0_21_7_1_2
   - p0_21_8 * a4c0_21_8_1_2 - p0_21_9 * a4c0_21_9_1_2
   - p0_21_10 * a4c0_21_10_1_2 - p0_21_11 * a4c0_21_11_1_2
   - p0_21_12 * a4c0_21_12_1_2 - p0_21_13 * a4c0_21_13_1_2 ] = 0
 qc381: p4a1_21_1_3 + [ - p0_21_0 * a4c0_21_0_1_3 - p0_21_1 * a4c0_21_1_1_3
   - p0_21_2 * a4c0_21_2_1_3 - p0_21_3 * a4c0_21_3_1_3
   - p0_21_4 * a4c0_21_4_1_3 - p0_21_5 * a4c0_21_5_1_3
   - p0_21_6 * a4c0_21_6_1_3 - p0_21_7 * a4c0_21_7_1_3
   - p0_21_8 * a4c0_21_8_1_3 - p0_21_9 * a4c0_21_9_1_3
   - p0_21_10 * a4c0_21_10_1_3 - p0_21_11 * a4c0_21_11_1_3
   - p0_21_12 * a4c0_21_12_1_3 - p0_21_13 * a4c0_21_13_1_3 ] = 0
 qc382: p4a1_21_2_0 + [ - p0_21_0 * a4c0_21_0_2_0 - p0_21_1 * a4c0_21_1_2_0
   - p0_21_2 * a4c0_21_2_2_0 - p0_21_3 * a4c0_21_3_2_0
   - p0_21_4 * a4c0_21_4_2_0 - p0_21_5 * a4c0_21_5_2_0
   - p0_21_6 * a4c0_21_6_2_0 - p0_21_7 * a4c0_21_7_2_0
   - p0_21_8 * a4c0_21_8_2_0 - p0_21_9 * a4c0_21_9_2_0
   - p0_21_10 * a4c0_21_10_2_0 - p0_21_11 * a4c0_21_11_2_0
   - p0_21_12 * a4c0_21_12_2_0 - p0_21_13 * a4c0_21_13_2_0 ] = 0
 qc383: p4a1_21_2_1 + [ - p0_21_0 * a4c0_21_0_2_1 - p0_21_1 * a4c0_21_1_2_1
   - p0_21_2 * a4c0_21_2_2_1 - p0_21_3 * a4c0_21_3_2_1
   - p0_21_4 * a4c0_21_4_2_1 - p0_21_5 * a4c0_21_5_2_1
   - p0_21_6 * a4c0_21_6_2_1 - p0_21_7 * a4c0_21_7_2_1
   - p0_21_8 * a4c0_21_8_2_1 - p0_21_9 * a4c0_21_9_2_1
   - p0_21_10 * a4c0_21_10_2_1 - p0_21_11 * a4c0_21_11_2_1
   - p0_21_12 * a4c0_21_12_2_1 - p0_21_13 * a4c0_21_13_2_1 ] = 0
 qc384: p4a1_21_2_2 + [ - p0_21_0 * a4c0_21_0_2_2 - p0_21_1 * a4c0_21_1_2_2
   - p0_21_2 * a4c0_21_2_2_2 - p0_21_3 * a4c0_21_3_2_2
   - p0_21_4 * a4c0_21_4_2_2 - p0_21_5 * a4c0_21_5_2_2
   - p0_21_6 * a4c0_21_6_2_2 - p0_21_7 * a4c0_21_7_2_2
   - p0_21_8 * a4c0_21_8_2_2 - p0_21_9 * a4c0_21_9_2_2
   - p0_21_10 * a4c0_21_10_2_2 - p0_21_11 * a4c0_21_11_2_2
   - p0_21_12 * a4c0_21_12_2_2 - p0_21_13 * a4c0_21_13_2_2 ] = 0
 qc385: p4a1_21_2_3 + [ - p0_21_0 * a4c0_21_0_2_3 - p0_21_1 * a4c0_21_1_2_3
   - p0_21_2 * a4c0_21_2_2_3 - p0_21_3 * a4c0_21_3_2_3
   - p0_21_4 * a4c0_21_4_2_3 - p0_21_5 * a4c0_21_5_2_3
   - p0_21_6 * a4c0_21_6_2_3 - p0_21_7 * a4c0_21_7_2_3
   - p0_21_8 * a4c0_21_8_2_3 - p0_21_9 * a4c0_21_9_2_3
   - p0_21_10 * a4c0_21_10_2_3 - p0_21_11 * a4c0_21_11_2_3
   - p0_21_12 * a4c0_21_12_2_3 - p0_21_13 * a4c0_21_13_2_3 ] = 0
 qc386: p4a1_21_3_0 + [ - p0_21_0 * a4c0_21_0_3_0 - p0_21_1 * a4c0_21_1_3_0
   - p0_21_2 * a4c0_21_2_3_0 - p0_21_3 * a4c0_21_3_3_0
   - p0_21_4 * a4c0_21_4_3_0 - p0_21_5 * a4c0_21_5_3_0
   - p0_21_6 * a4c0_21_6_3_0 - p0_21_7 * a4c0_21_7_3_0
   - p0_21_8 * a4c0_21_8_3_0 - p0_21_9 * a4c0_21_9_3_0
   - p0_21_10 * a4c0_21_10_3_0 - p0_21_11 * a4c0_21_11_3_0
   - p0_21_12 * a4c0_21_12_3_0 - p0_21_13 * a4c0_21_13_3_0 ] = 0
 qc387: p4a1_21_3_1 + [ - p0_21_0 * a4c0_21_0_3_1 - p0_21_1 * a4c0_21_1_3_1
   - p0_21_2 * a4c0_21_2_3_1 - p0_21_3 * a4c0_21_3_3_1
   - p0_21_4 * a4c0_21_4_3_1 - p0_21_5 * a4c0_21_5_3_1
   - p0_21_6 * a4c0_21_6_3_1 - p0_21_7 * a4c0_21_7_3_1
   - p0_21_8 * a4c0_21_8_3_1 - p0_21_9 * a4c0_21_9_3_1
   - p0_21_10 * a4c0_21_10_3_1 - p0_21_11 * a4c0_21_11_3_1
   - p0_21_12 * a4c0_21_12_3_1 - p0_21_13 * a4c0_21_13_3_1 ] = 0
 qc388: p4a1_21_3_2 + [ - p0_21_0 * a4c0_21_0_3_2 - p0_21_1 * a4c0_21_1_3_2
   - p0_21_2 * a4c0_21_2_3_2 - p0_21_3 * a4c0_21_3_3_2
   - p0_21_4 * a4c0_21_4_3_2 - p0_21_5 * a4c0_21_5_3_2
   - p0_21_6 * a4c0_21_6_3_2 - p0_21_7 * a4c0_21_7_3_2
   - p0_21_8 * a4c0_21_8_3_2 - p0_21_9 * a4c0_21_9_3_2
   - p0_21_10 * a4c0_21_10_3_2 - p0_21_11 * a4c0_21_11_3_2
   - p0_21_12 * a4c0_21_12_3_2 - p0_21_13 * a4c0_21_13_3_2 ] = 0
 qc389: p4a1_21_3_3 + [ - p0_21_0 * a4c0_21_0_3_3 - p0_21_1 * a4c0_21_1_3_3
   - p0_21_2 * a4c0_21_2_3_3 - p0_21_3 * a4c0_21_3_3_3
   - p0_21_4 * a4c0_21_4_3_3 - p0_21_5 * a4c0_21_5_3_3
   - p0_21_6 * a4c0_21_6_3_3 - p0_21_7 * a4c0_21_7_3_3
   - p0_21_8 * a4c0_21_8_3_3 - p0_21_9 * a4c0_21_9_3_3
   - p0_21_10 * a4c0_21_10_3_3 - p0_21_11 * a4c0_21_11_3_3
   - p0_21_12 * a4c0_21_12_3_3 - p0_21_13 * a4c0_21_13_3_3 ] = 0
 qc390: q4t1_21_0_0 + [ - p4a1_21_1_2 * p4a1_21_1_3 ] = 0
 qc391: q4t1_21_0_1 + [ - p4a1_21_1_0 * p4a1_21_1_3 ] = 0
 qc392: q4t1_21_0_2 + [ - p4a1_21_1_0 * p4a1_21_1_1 ] = 0
 qc393: q4t1_21_0_3 + [ - p4a1_21_1_1 * p4a1_21_1_3 ] = 0
 qc394: q4t1_21_0_4 + [ - p4a1_21_1_1 * p4a1_21_1_2 ] = 0
 qc395: p1_21_2 - p4a1_21_1_0 - p4a1_21_1_1 - q4t1_21_0_0 - 2 q4t1_21_0_1
   - q4t1_21_0_2 + [ p4a1_21_1_0 * q4t1_21_0_0 + p4a1_21_1_1 * q4t1_21_0_0
   + 2 p4a1_21_1_3 * q4t1_21_0_2 - q4t1_21_0_1 * q4t1_21_0_4 ] = 0
 qc396: p1_21_3 - p4a1_21_1_2 - p4a1_21_1_3 + q4t1_21_0_0 - q4t1_21_0_2 + [
   p4a1_21_1_2 * q4t1_21_0_2 + p4a1_21_1_3 * q4t1_21_0_2
   - q4t1_21_0_0 * q4t1_21_0_2 ] = 0
 qc397: med4a1_21_0 + [ - p4a1_21_1_0 * q4t1_21_0_3
   - p4a1_21_1_2 * q4t1_21_0_2 - p4a1_21_1_2 * q4t1_21_0_3
   - p4a1_21_1_3 * q4t1_21_0_2 + 2 q4t1_21_0_0 * q4t1_21_0_2 ] = 0
 qc398: q4t1_21_1_0 + [ - p4a1_21_2_2 * p4a1_21_2_3 ] = 0
 qc399: q4t1_21_1_1 + [ - p4a1_21_2_0 * p4a1_21_2_3 ] = 0
 qc400: q4t1_21_1_2 + [ - p4a1_21_2_0 * p4a1_21_2_1 ] = 0
 qc401: q4t1_21_1_3 + [ - p4a1_21_2_1 * p4a1_21_2_3 ] = 0
 qc402: q4t1_21_1_4 + [ - p4a1_21_2_1 * p4a1_21_2_2 ] = 0
 qc403: p1_21_4 - p4a1_21_2_0 - p4a1_21_2_1 - q4t1_21_1_0 - 2 q4t1_21_1_1
   - q4t1_21_1_2 + [ p4a1_21_2_0 * q4t1_21_1_0 + p4a1_21_2_1 * q4t1_21_1_0
   + 2 p4a1_21_2_3 * q4t1_21_1_2 - q4t1_21_1_1 * q4t1_21_1_4 ] = 0
 qc404: p1_21_5 - p4a1_21_2_2 - p4a1_21_2_3 + q4t1_21_1_0 - q4t1_21_1_2 + [
   p4a1_21_2_2 * q4t1_21_1_2 + p4a1_21_2_3 * q4t1_21_1_2
   - q4t1_21_1_0 * q4t1_21_1_2 ] = 0
 qc405: med4a1_21_1 + [ - p4a1_21_2_0 * q4t1_21_1_3
   - p4a1_21_2_2 * q4t1_21_1_2 - p4a1_21_2_2 * q4t1_21_1_3
   - p4a1_21_2_3 * q4t1_21_1_2 + 2 q4t1_21_1_0 * q4t1_21_1_2 ] = 0
 qc406: q4t1_21_2_0 + [ - p4a1_21_3_2 * p4a1_21_3_3 ] = 0
 qc407: q4t1_21_2_1 + [ - p4a1_21_3_0 * p4a1_21_3_3 ] = 0
 qc408: q4t1_21_2_2 + [ - p4a1_21_3_0 * p4a1_21_3_1 ] = 0
 qc409: q4t1_21_2_3 + [ - p4a1_21_3_1 * p4a1_21_3_3 ] = 0
 qc410: q4t1_21_2_4 + [ - p4a1_21_3_1 * p4a1_21_3_2 ] = 0
 qc411: p1_21_6 - p4a1_21_3_0 - p4a1_21_3_1 - q4t1_21_2_0 - 2 q4t1_21_2_1
   - q4t1_21_2_2 + [ p4a1_21_3_0 * q4t1_21_2_0 + p4a1_21_3_1 * q4t1_21_2_0
   + 2 p4a1_21_3_3 * q4t1_21_2_2 - q4t1_21_2_1 * q4t1_21_2_4 ] = 0
 qc412: p1_21_7 - p4a1_21_3_2 - p4a1_21_3_3 + q4t1_21_2_0 - q4t1_21_2_2 + [
   p4a1_21_3_2 * q4t1_21_2_2 + p4a1_21_3_3 * q4t1_21_2_2
   - q4t1_21_2_0 * q4t1_21_2_2 ] = 0
 qc413: med4a1_21_2 + [ - p4a1_21_3_0 * q4t1_21_2_3
   - p4a1_21_3_2 * q4t1_21_2_2 - p4a1_21_3_2 * q4t1_21_2_3
   - p4a1_21_3_3 * q4t1_21_2_2 + 2 q4t1_21_2_0 * q4t1_21_2_2 ] = 0
 qc414: - p1_22_0 + [ p0_22_0 * rb0_22_0_0 + p0_22_1 * rb0_22_1_0
   + p0_22_2 * rb0_22_2_0 + p0_22_3 * rb0_22_3_0 + p0_22_4 * rb0_22_4_0
   + p0_22_5 * rb0_22_5_0 + p0_22_6 * rb0_22_6_0 + p0_22_7 * rb0_22_7_0
   + p0_22_8 * rb0_22_8_0 + p0_22_9 * rb0_22_9_0 + p0_22_10 * rb0_22_10_0
   + p0_22_11 * rb0_22_11_0 + p0_22_12 * rb0_22_12_0 ] = 0
 qc415: p4a1_22_1_0 + [ - p0_22_0 * a4c0_22_0_1_0 - p0_22_1 * a4c0_22_1_1_0
   - p0_22_2 * a4c0_22_2_1_0 - p0_22_3 * a4c0_22_3_1_0
   - p0_22_4 * a4c0_22_4_1_0 - p0_22_5 * a4c0_22_5_1_0
   - p0_22_6 * a4c0_22_6_1_0 - p0_22_7 * a4c0_22_7_1_0
   - p0_22_8 * a4c0_22_8_1_0 - p0_22_9 * a4c0_22_9_1_0
   - p0_22_10 * a4c0_22_10_1_0 - p0_22_11 * a4c0_22_11_1_0
   - p0_22_12 * a4c0_22_12_1_0 ] = 0
 qc416: p4a1_22_1_1 + [ - p0_22_0 * a4c0_22_0_1_1 - p0_22_1 * a4c0_22_1_1_1
   - p0_22_2 * a4c0_22_2_1_1 - p0_22_3 * a4c0_22_3_1_1
   - p0_22_4 * a4c0_22_4_1_1 - p0_22_5 * a4c0_22_5_1_1
   - p0_22_6 * a4c0_22_6_1_1 - p0_22_7 * a4c0_22_7_1_1
   - p0_22_8 * a4c0_22_8_1_1 - p0_22_9 * a4c0_22_9_1_1
   - p0_22_10 * a4c0_22_10_1_1 - p0_22_11 * a4c0_22_11_1_1
   - p0_22_12 * a4c0_22_12_1_1 ] = 0
 qc417: p4a1_22_1_2 + [ - p0_22_0 * a4c0_22_0_1_2 - p0_22_1 * a4c0_22_1_1_2
   - p0_22_2 * a4c0_22_2_1_2 - p0_22_3 * a4c0_22_3_1_2
   - p0_22_4 * a4c0_22_4_1_2 - p0_22_5 * a4c0_22_5_1_2
   - p0_22_6 * a4c0_22_6_1_2 - p0_22_7 * a4c0_22_7_1_2
   - p0_22_8 * a4c0_22_8_1_2 - p0_22_9 * a4c0_22_9_1_2
   - p0_22_10 * a4c0_22_10_1_2 - p0_22_11 * a4c0_22_11_1_2
   - p0_22_12 * a4c0_22_12_1_2 ] = 0
 qc418: p4a1_22_1_3 + [ - p0_22_0 * a4c0_22_0_1_3 - p0_22_1 * a4c0_22_1_1_3
   - p0_22_2 * a4c0_22_2_1_3 - p0_22_3 * a4c0_22_3_1_3
   - p0_22_4 * a4c0_22_4_1_3 - p0_22_5 * a4c0_22_5_1_3
   - p0_22_6 * a4c0_22_6_1_3 - p0_22_7 * a4c0_22_7_1_3
   - p0_22_8 * a4c0_22_8_1_3 - p0_22_9 * a4c0_22_9_1_3
   - p0_22_10 * a4c0_22_10_1_3 - p0_22_11 * a4c0_22_11_1_3
   - p0_22_12 * a4c0_22_12_1_3 ] = 0
 qc419: p4a1_22_2_0 + [ - p0_22_0 * a4c0_22_0_2_0 - p0_22_1 * a4c0_22_1_2_0
   - p0_22_2 * a4c0_22_2_2_0 - p0_22_3 * a4c0_22_3_2_0
   - p0_22_4 * a4c0_22_4_2_0 - p0_22_5 * a4c0_22_5_2_0
   - p0_22_6 * a4c0_22_6_2_0 - p0_22_7 * a4c0_22_7_2_0
   - p0_22_8 * a4c0_22_8_2_0 - p0_22_9 * a4c0_22_9_2_0
   - p0_22_10 * a4c0_22_10_2_0 - p0_22_11 * a4c0_22_11_2_0
   - p0_22_12 * a4c0_22_12_2_0 ] = 0
 qc420: p4a1_22_2_1 + [ - p0_22_0 * a4c0_22_0_2_1 - p0_22_1 * a4c0_22_1_2_1
   - p0_22_2 * a4c0_22_2_2_1 - p0_22_3 * a4c0_22_3_2_1
   - p0_22_4 * a4c0_22_4_2_1 - p0_22_5 * a4c0_22_5_2_1
   - p0_22_6 * a4c0_22_6_2_1 - p0_22_7 * a4c0_22_7_2_1
   - p0_22_8 * a4c0_22_8_2_1 - p0_22_9 * a4c0_22_9_2_1
   - p0_22_10 * a4c0_22_10_2_1 - p0_22_11 * a4c0_22_11_2_1
   - p0_22_12 * a4c0_22_12_2_1 ] = 0
 qc421: p4a1_22_2_2 + [ - p0_22_0 * a4c0_22_0_2_2 - p0_22_1 * a4c0_22_1_2_2
   - p0_22_2 * a4c0_22_2_2_2 - p0_22_3 * a4c0_22_3_2_2
   - p0_22_4 * a4c0_22_4_2_2 - p0_22_5 * a4c0_22_5_2_2
   - p0_22_6 * a4c0_22_6_2_2 - p0_22_7 * a4c0_22_7_2_2
   - p0_22_8 * a4c0_22_8_2_2 - p0_22_9 * a4c0_22_9_2_2
   - p0_22_10 * a4c0_22_10_2_2 - p0_22_11 * a4c0_22_11_2_2
   - p0_22_12 * a4c0_22_12_2_2 ] = 0
 qc422: p4a1_22_2_3 + [ - p0_22_0 * a4c0_22_0_2_3 - p0_22_1 * a4c0_22_1_2_3
   - p0_22_2 * a4c0_22_2_2_3 - p0_22_3 * a4c0_22_3_2_3
   - p0_22_4 * a4c0_22_4_2_3 - p0_22_5 * a4c0_22_5_2_3
   - p0_22_6 * a4c0_22_6_2_3 - p0_22_7 * a4c0_22_7_2_3
   - p0_22_8 * a4c0_22_8_2_3 - p0_22_9 * a4c0_22_9_2_3
   - p0_22_10 * a4c0_22_10_2_3 - p0_22_11 * a4c0_22_11_2_3
   - p0_22_12 * a4c0_22_12_2_3 ] = 0
 qc423: p4a1_22_3_0 + [ - p0_22_0 * a4c0_22_0_3_0 - p0_22_1 * a4c0_22_1_3_0
   - p0_22_2 * a4c0_22_2_3_0 - p0_22_3 * a4c0_22_3_3_0
   - p0_22_4 * a4c0_22_4_3_0 - p0_22_5 * a4c0_22_5_3_0
   - p0_22_6 * a4c0_22_6_3_0 - p0_22_7 * a4c0_22_7_3_0
   - p0_22_8 * a4c0_22_8_3_0 - p0_22_9 * a4c0_22_9_3_0
   - p0_22_10 * a4c0_22_10_3_0 - p0_22_11 * a4c0_22_11_3_0
   - p0_22_12 * a4c0_22_12_3_0 ] = 0
 qc424: p4a1_22_3_1 + [ - p0_22_0 * a4c0_22_0_3_1 - p0_22_1 * a4c0_22_1_3_1
   - p0_22_2 * a4c0_22_2_3_1 - p0_22_3 * a4c0_22_3_3_1
   - p0_22_4 * a4c0_22_4_3_1 - p0_22_5 * a4c0_22_5_3_1
   - p0_22_6 * a4c0_22_6_3_1 - p0_22_7 * a4c0_22_7_3_1
   - p0_22_8 * a4c0_22_8_3_1 - p0_22_9 * a4c0_22_9_3_1
   - p0_22_10 * a4c0_22_10_3_1 - p0_22_11 * a4c0_22_11_3_1
   - p0_22_12 * a4c0_22_12_3_1 ] = 0
 qc425: p4a1_22_3_2 + [ - p0_22_0 * a4c0_22_0_3_2 - p0_22_1 * a4c0_22_1_3_2
   - p0_22_2 * a4c0_22_2_3_2 - p0_22_3 * a4c0_22_3_3_2
   - p0_22_4 * a4c0_22_4_3_2 - p0_22_5 * a4c0_22_5_3_2
   - p0_22_6 * a4c0_22_6_3_2 - p0_22_7 * a4c0_22_7_3_2
   - p0_22_8 * a4c0_22_8_3_2 - p0_22_9 * a4c0_22_9_3_2
   - p0_22_10 * a4c0_22_10_3_2 - p0_22_11 * a4c0_22_11_3_2
   - p0_22_12 * a4c0_22_12_3_2 ] = 0
 qc426: p4a1_22_3_3 + [ - p0_22_0 * a4c0_22_0_3_3 - p0_22_1 * a4c0_22_1_3_3
   - p0_22_2 * a4c0_22_2_3_3 - p0_22_3 * a4c0_22_3_3_3
   - p0_22_4 * a4c0_22_4_3_3 - p0_22_5 * a4c0_22_5_3_3
   - p0_22_6 * a4c0_22_6_3_3 - p0_22_7 * a4c0_22_7_3_3
   - p0_22_8 * a4c0_22_8_3_3 - p0_22_9 * a4c0_22_9_3_3
   - p0_22_10 * a4c0_22_10_3_3 - p0_22_11 * a4c0_22_11_3_3
   - p0_22_12 * a4c0_22_12_3_3 ] = 0
 qc427: q4t1_22_0_0 + [ - p4a1_22_1_2 * p4a1_22_1_3 ] = 0
 qc428: q4t1_22_0_1 + [ - p4a1_22_1_0 * p4a1_22_1_3 ] = 0
 qc429: q4t1_22_0_2 + [ - p4a1_22_1_0 * p4a1_22_1_1 ] = 0
 qc430: q4t1_22_0_3 + [ - p4a1_22_1_1 * p4a1_22_1_3 ] = 0
 qc431: q4t1_22_0_4 + [ - p4a1_22_1_1 * p4a1_22_1_2 ] = 0
 qc432: p1_22_1 - p4a1_22_1_0 - p4a1_22_1_1 - q4t1_22_0_0 - 2 q4t1_22_0_1
   - q4t1_22_0_2 + [ p4a1_22_1_0 * q4t1_22_0_0 + p4a1_22_1_1 * q4t1_22_0_0
   + 2 p4a1_22_1_3 * q4t1_22_0_2 - q4t1_22_0_1 * q4t1_22_0_4 ] = 0
 qc433: p1_22_2 - p4a1_22_1_2 - p4a1_22_1_3 + q4t1_22_0_0 - q4t1_22_0_2 + [
   p4a1_22_1_2 * q4t1_22_0_2 + p4a1_22_1_3 * q4t1_22_0_2
   - q4t1_22_0_0 * q4t1_22_0_2 ] = 0
 qc434: med4a1_22_0 + [ - p4a1_22_1_0 * q4t1_22_0_3
   - p4a1_22_1_2 * q4t1_22_0_2 - p4a1_22_1_2 * q4t1_22_0_3
   - p4a1_22_1_3 * q4t1_22_0_2 + 2 q4t1_22_0_0 * q4t1_22_0_2 ] = 0
 qc435: q4t1_22_1_0 + [ - p4a1_22_2_2 * p4a1_22_2_3 ] = 0
 qc436: q4t1_22_1_1 + [ - p4a1_22_2_0 * p4a1_22_2_3 ] = 0
 qc437: q4t1_22_1_2 + [ - p4a1_22_2_0 * p4a1_22_2_1 ] = 0
 qc438: q4t1_22_1_3 + [ - p4a1_22_2_1 * p4a1_22_2_3 ] = 0
 qc439: q4t1_22_1_4 + [ - p4a1_22_2_1 * p4a1_22_2_2 ] = 0
 qc440: p1_22_3 - p4a1_22_2_0 - p4a1_22_2_1 - q4t1_22_1_0 - 2 q4t1_22_1_1
   - q4t1_22_1_2 + [ p4a1_22_2_0 * q4t1_22_1_0 + p4a1_22_2_1 * q4t1_22_1_0
   + 2 p4a1_22_2_3 * q4t1_22_1_2 - q4t1_22_1_1 * q4t1_22_1_4 ] = 0
 qc441: p1_22_4 - p4a1_22_2_2 - p4a1_22_2_3 + q4t1_22_1_0 - q4t1_22_1_2 + [
   p4a1_22_2_2 * q4t1_22_1_2 + p4a1_22_2_3 * q4t1_22_1_2
   - q4t1_22_1_0 * q4t1_22_1_2 ] = 0
 qc442: med4a1_22_1 + [ - p4a1_22_2_0 * q4t1_22_1_3
   - p4a1_22_2_2 * q4t1_22_1_2 - p4a1_22_2_2 * q4t1_22_1_3
   - p4a1_22_2_3 * q4t1_22_1_2 + 2 q4t1_22_1_0 * q4t1_22_1_2 ] = 0
 qc443: q4t1_22_2_0 + [ - p4a1_22_3_2 * p4a1_22_3_3 ] = 0
 qc444: q4t1_22_2_1 + [ - p4a1_22_3_0 * p4a1_22_3_3 ] = 0
 qc445: q4t1_22_2_2 + [ - p4a1_22_3_0 * p4a1_22_3_1 ] = 0
 qc446: q4t1_22_2_3 + [ - p4a1_22_3_1 * p4a1_22_3_3 ] = 0
 qc447: q4t1_22_2_4 + [ - p4a1_22_3_1 * p4a1_22_3_2 ] = 0
 qc448: p1_22_5 - p4a1_22_3_0 - p4a1_22_3_1 - q4t1_22_2_0 - 2 q4t1_22_2_1
   - q4t1_22_2_2 + [ p4a1_22_3_0 * q4t1_22_2_0 + p4a1_22_3_1 * q4t1_22_2_0
   + 2 p4a1_22_3_3 * q4t1_22_2_2 - q4t1_22_2_1 * q4t1_22_2_4 ] = 0
 qc449: p1_22_6 - p4a1_22_3_2 - p4a1_22_3_3 + q4t1_22_2_0 - q4t1_22_2_2 + [
   p4a1_22_3_2 * q4t1_22_2_2 + p4a1_22_3_3 * q4t1_22_2_2
   - q4t1_22_2_0 * q4t1_22_2_2 ] = 0
 qc450: med4a1_22_2 + [ - p4a1_22_3_0 * q4t1_22_2_3
   - p4a1_22_3_2 * q4t1_22_2_2 - p4a1_22_3_2 * q4t1_22_2_3
   - p4a1_22_3_3 * q4t1_22_2_2 + 2 q4t1_22_2_0 * q4t1_22_2_2 ] = 0
 qc451: - p1_23_0 + [ p0_23_0 * rb0_23_0_0 + p0_23_1 * rb0_23_1_0
   + p0_23_2 * rb0_23_2_0 + p0_23_3 * rb0_23_3_0 + p0_23_4 * rb0_23_4_0
   + p0_23_5 * rb0_23_5_0 + p0_23_6 * rb0_23_6_0 + p0_23_7 * rb0_23_7_0
   + p0_23_8 * rb0_23_8_0 + p0_23_9 * rb0_23_9_0 + p0_23_10 * rb0_23_10_0
   + p0_23_11 * rb0_23_11_0 ] = 0
 qc452: p4a1_23_1_0 + [ - p0_23_0 * a4c0_23_0_1_0 - p0_23_1 * a4c0_23_1_1_0
   - p0_23_2 * a4c0_23_2_1_0 - p0_23_3 * a4c0_23_3_1_0
   - p0_23_4 * a4c0_23_4_1_0 - p0_23_5 * a4c0_23_5_1_0
   - p0_23_6 * a4c0_23_6_1_0 - p0_23_7 * a4c0_23_7_1_0
   - p0_23_8 * a4c0_23_8_1_0 - p0_23_9 * a4c0_23_9_1_0
   - p0_23_10 * a4c0_23_10_1_0 - p0_23_11 * a4c0_23_11_1_0 ] = 0
 qc453: p4a1_23_1_1 + [ - p0_23_0 * a4c0_23_0_1_1 - p0_23_1 * a4c0_23_1_1_1
   - p0_23_2 * a4c0_23_2_1_1 - p0_23_3 * a4c0_23_3_1_1
   - p0_23_4 * a4c0_23_4_1_1 - p0_23_5 * a4c0_23_5_1_1
   - p0_23_6 * a4c0_23_6_1_1 - p0_23_7 * a4c0_23_7_1_1
   - p0_23_8 * a4c0_23_8_1_1 - p0_23_9 * a4c0_23_9_1_1
   - p0_23_10 * a4c0_23_10_1_1 - p0_23_11 * a4c0_23_11_1_1 ] = 0
 qc454: p4a1_23_1_2 + [ - p0_23_0 * a4c0_23_0_1_2 - p0_23_1 * a4c0_23_1_1_2
   - p0_23_2 * a4c0_23_2_1_2 - p0_23_3 * a4c0_23_3_1_2
   - p0_23_4 * a4c0_23_4_1_2 - p0_23_5 * a4c0_23_5_1_2
   - p0_23_6 * a4c0_23_6_1_2 - p0_23_7 * a4c0_23_7_1_2
   - p0_23_8 * a4c0_23_8_1_2 - p0_23_9 * a4c0_23_9_1_2
   - p0_23_10 * a4c0_23_10_1_2 - p0_23_11 * a4c0_23_11_1_2 ] = 0
 qc455: p4a1_23_1_3 + [ - p0_23_0 * a4c0_23_0_1_3 - p0_23_1 * a4c0_23_1_1_3
   - p0_23_2 * a4c0_23_2_1_3 - p0_23_3 * a4c0_23_3_1_3
   - p0_23_4 * a4c0_23_4_1_3 - p0_23_5 * a4c0_23_5_1_3
   - p0_23_6 * a4c0_23_6_1_3 - p0_23_7 * a4c0_23_7_1_3
   - p0_23_8 * a4c0_23_8_1_3 - p0_23_9 * a4c0_23_9_1_3
   - p0_23_10 * a4c0_23_10_1_3 - p0_23_11 * a4c0_23_11_1_3 ] = 0
 qc456: p4a1_23_2_0 + [ - p0_23_0 * a4c0_23_0_2_0 - p0_23_1 * a4c0_23_1_2_0
   - p0_23_2 * a4c0_23_2_2_0 - p0_23_3 * a4c0_23_3_2_0
   - p0_23_4 * a4c0_23_4_2_0 - p0_23_5 * a4c0_23_5_2_0
   - p0_23_6 * a4c0_23_6_2_0 - p0_23_7 * a4c0_23_7_2_0
   - p0_23_8 * a4c0_23_8_2_0 - p0_23_9 * a4c0_23_9_2_0
   - p0_23_10 * a4c0_23_10_2_0 - p0_23_11 * a4c0_23_11_2_0 ] = 0
 qc457: p4a1_23_2_1 + [ - p0_23_0 * a4c0_23_0_2_1 - p0_23_1 * a4c0_23_1_2_1
   - p0_23_2 * a4c0_23_2_2_1 - p0_23_3 * a4c0_23_3_2_1
   - p0_23_4 * a4c0_23_4_2_1 - p0_23_5 * a4c0_23_5_2_1
   - p0_23_6 * a4c0_23_6_2_1 - p0_23_7 * a4c0_23_7_2_1
   - p0_23_8 * a4c0_23_8_2_1 - p0_23_9 * a4c0_23_9_2_1
   - p0_23_10 * a4c0_23_10_2_1 - p0_23_11 * a4c0_23_11_2_1 ] = 0
 qc458: p4a1_23_2_2 + [ - p0_23_0 * a4c0_23_0_2_2 - p0_23_1 * a4c0_23_1_2_2
   - p0_23_2 * a4c0_23_2_2_2 - p0_23_3 * a4c0_23_3_2_2
   - p0_23_4 * a4c0_23_4_2_2 - p0_23_5 * a4c0_23_5_2_2
   - p0_23_6 * a4c0_23_6_2_2 - p0_23_7 * a4c0_23_7_2_2
   - p0_23_8 * a4c0_23_8_2_2 - p0_23_9 * a4c0_23_9_2_2
   - p0_23_10 * a4c0_23_10_2_2 - p0_23_11 * a4c0_23_11_2_2 ] = 0
 qc459: p4a1_23_2_3 + [ - p0_23_0 * a4c0_23_0_2_3 - p0_23_1 * a4c0_23_1_2_3
   - p0_23_2 * a4c0_23_2_2_3 - p0_23_3 * a4c0_23_3_2_3
   - p0_23_4 * a4c0_23_4_2_3 - p0_23_5 * a4c0_23_5_2_3
   - p0_23_6 * a4c0_23_6_2_3 - p0_23_7 * a4c0_23_7_2_3
   - p0_23_8 * a4c0_23_8_2_3 - p0_23_9 * a4c0_23_9_2_3
   - p0_23_10 * a4c0_23_10_2_3 - p0_23_11 * a4c0_23_11_2_3 ] = 0
 qc460: q4t1_23_0_0 + [ - p4a1_23_1_2 * p4a1_23_1_3 ] = 0
 qc461: q4t1_23_0_1 + [ - p4a1_23_1_0 * p4a1_23_1_3 ] = 0
 qc462: q4t1_23_0_2 + [ - p4a1_23_1_0 * p4a1_23_1_1 ] = 0
 qc463: q4t1_23_0_3 + [ - p4a1_23_1_1 * p4a1_23_1_3 ] = 0
 qc464: q4t1_23_0_4 + [ - p4a1_23_1_1 * p4a1_23_1_2 ] = 0
 qc465: p1_23_1 - p4a1_23_1_0 - p4a1_23_1_1 - q4t1_23_0_0 - 2 q4t1_23_0_1
   - q4t1_23_0_2 + [ p4a1_23_1_0 * q4t1_23_0_0 + p4a1_23_1_1 * q4t1_23_0_0
   + 2 p4a1_23_1_3 * q4t1_23_0_2 - q4t1_23_0_1 * q4t1_23_0_4 ] = 0
 qc466: p1_23_2 - p4a1_23_1_2 - p4a1_23_1_3 + q4t1_23_0_0 - q4t1_23_0_2 + [
   p4a1_23_1_2 * q4t1_23_0_2 + p4a1_23_1_3 * q4t1_23_0_2
   - q4t1_23_0_0 * q4t1_23_0_2 ] = 0
 qc467: med4a1_23_0 + [ - p4a1_23_1_0 * q4t1_23_0_3
   - p4a1_23_1_2 * q4t1_23_0_2 - p4a1_23_1_2 * q4t1_23_0_3
   - p4a1_23_1_3 * q4t1_23_0_2 + 2 q4t1_23_0_0 * q4t1_23_0_2 ] = 0
 qc468: q4t1_23_1_0 + [ - p4a1_23_2_2 * p4a1_23_2_3 ] = 0
 qc469: q4t1_23_1_1 + [ - p4a1_23_2_0 * p4a1_23_2_3 ] = 0
 qc470: q4t1_23_1_2 + [ - p4a1_23_2_0 * p4a1_23_2_1 ] = 0
 qc471: q4t1_23_1_3 + [ - p4a1_23_2_1 * p4a1_23_2_3 ] = 0
 qc472: q4t1_23_1_4 + [ - p4a1_23_2_1 * p4a1_23_2_2 ] = 0
 qc473: p1_23_3 - p4a1_23_2_0 - p4a1_23_2_1 - q4t1_23_1_0 - 2 q4t1_23_1_1
   - q4t1_23_1_2 + [ p4a1_23_2_0 * q4t1_23_1_0 + p4a1_23_2_1 * q4t1_23_1_0
   + 2 p4a1_23_2_3 * q4t1_23_1_2 - q4t1_23_1_1 * q4t1_23_1_4 ] = 0
 qc474: p1_23_4 - p4a1_23_2_2 - p4a1_23_2_3 + q4t1_23_1_0 - q4t1_23_1_2 + [
   p4a1_23_2_2 * q4t1_23_1_2 + p4a1_23_2_3 * q4t1_23_1_2
   - q4t1_23_1_0 * q4t1_23_1_2 ] = 0
 qc475: med4a1_23_1 + [ - p4a1_23_2_0 * q4t1_23_1_3
   - p4a1_23_2_2 * q4t1_23_1_2 - p4a1_23_2_2 * q4t1_23_1_3
   - p4a1_23_2_3 * q4t1_23_1_2 + 2 q4t1_23_1_0 * q4t1_23_1_2 ] = 0
 qc476: p3a1_23_1_0 + [ - p0_23_0 * a3c0_23_0_1_0 - p0_23_1 * a3c0_23_1_1_0
   - p0_23_2 * a3c0_23_2_1_0 - p0_23_3 * a3c0_23_3_1_0
   - p0_23_4 * a3c0_23_4_1_0 - p0_23_5 * a3c0_23_5_1_0
   - p0_23_6 * a3c0_23_6_1_0 - p0_23_7 * a3c0_23_7_1_0
   - p0_23_8 * a3c0_23_8_1_0 - p0_23_9 * a3c0_23_9_1_0
   - p0_23_10 * a3c0_23_10_1_0 - p0_23_11 * a3c0_23_11_1_0 ] = 0
 qc477: p3a1_23_1_1 + [ - p0_23_0 * a3c0_23_0_1_1 - p0_23_1 * a3c0_23_1_1_1
   - p0_23_2 * a3c0_23_2_1_1 - p0_23_3 * a3c0_23_3_1_1
   - p0_23_4 * a3c0_23_4_1_1 - p0_23_5 * a3c0_23_5_1_1
   - p0_23_6 * a3c0_23_6_1_1 - p0_23_7 * a3c0_23_7_1_1
   - p0_23_8 * a3c0_23_8_1_1 - p0_23_9 * a3c0_23_9_1_1
   - p0_23_10 * a3c0_23_10_1_1 - p0_23_11 * a3c0_23_11_1_1 ] = 0
 qc478: p3a1_23_1_2 + [ - p0_23_0 * a3c0_23_0_1_2 - p0_23_1 * a3c0_23_1_1_2
   - p0_23_2 * a3c0_23_2_1_2 - p0_23_3 * a3c0_23_3_1_2
   - p0_23_4 * a3c0_23_4_1_2 - p0_23_5 * a3c0_23_5_1_2
   - p0_23_6 * a3c0_23_6_1_2 - p0_23_7 * a3c0_23_7_1_2
   - p0_23_8 * a3c0_23_8_1_2 - p0_23_9 * a3c0_23_9_1_2
   - p0_23_10 * a3c0_23_10_1_2 - p0_23_11 * a3c0_23_11_1_2 ] = 0
 qc479: q3t1_23_0_0 + [ - p3a1_23_1_0 * p3a1_23_1_1 ] = 0
 qc480: p1_23_5 - p3a1_23_1_0 - p3a1_23_1_1 + q3t1_23_0_0 + [ ] = 0
 qc481: p1_23_6 - p3a1_23_1_2 - q3t1_23_0_0 + [ p3a1_23_1_2 * q3t1_23_0_0 ]
   = 0
 qc482: med3a1_23_0 + [ - p3a1_23_1_2 * q3t1_23_0_0 ] = 0
 qc483: - p1_24_0 + [ p0_24_0 * rb0_24_0_0 + p0_24_1 * rb0_24_1_0
   + p0_24_2 * rb0_24_2_0 + p0_24_3 * rb0_24_3_0 + p0_24_4 * rb0_24_4_0
   + p0_24_5 * rb0_24_5_0 + p0_24_6 * rb0_24_6_0 + p0_24_7 * rb0_24_7_0
   + p0_24_8 * rb0_24_8_0 + p0_24_9 * rb0_24_9_0 + p0_24_10 * rb0_24_10_0 ]
   = 0
 qc484: - p1_24_1 + [ p0_24_0 * rb0_24_0_1 + p0_24_1 * rb0_24_1_1
   + p0_24_2 * rb0_24_2_1 + p0_24_3 * rb0_24_3_1 + p0_24_4 * rb0_24_4_1
   + p0_24_5 * rb0_24_5_1 + p0_24_6 * rb0_24_6_1 + p0_24_7 * rb0_24_7_1
   + p0_24_8 * rb0_24_8_1 + p0_24_9 * rb0_24_9_1 + p0_24_10 * rb0_24_10_1 ]
   = 0
 qc485: p3a1_24_1_0 + [ - p0_24_0 * a3c0_24_0_1_0 - p0_24_1 * a3c0_24_1_1_0
   - p0_24_2 * a3c0_24_2_1_0 - p0_24_3 * a3c0_24_3_1_0
   - p0_24_4 * a3c0_24_4_1_0 - p0_24_5 * a3c0_24_5_1_0
   - p0_24_6 * a3c0_24_6_1_0 - p0_24_7 * a3c0_24_7_1_0
   - p0_24_8 * a3c0_24_8_1_0 - p0_24_9 * a3c0_24_9_1_0
   - p0_24_10 * a3c0_24_10_1_0 ] = 0
 qc486: p3a1_24_1_1 + [ - p0_24_0 * a3c0_24_0_1_1 - p0_24_1 * a3c0_24_1_1_1
   - p0_24_2 * a3c0_24_2_1_1 - p0_24_3 * a3c0_24_3_1_1
   - p0_24_4 * a3c0_24_4_1_1 - p0_24_5 * a3c0_24_5_1_1
   - p0_24_6 * a3c0_24_6_1_1 - p0_24_7 * a3c0_24_7_1_1
   - p0_24_8 * a3c0_24_8_1_1 - p0_24_9 * a3c0_24_9_1_1
   - p0_24_10 * a3c0_24_10_1_1 ] = 0
 qc487: p3a1_24_1_2 + [ - p0_24_0 * a3c0_24_0_1_2 - p0_24_1 * a3c0_24_1_1_2
   - p0_24_2 * a3c0_24_2_1_2 - p0_24_3 * a3c0_24_3_1_2
   - p0_24_4 * a3c0_24_4_1_2 - p0_24_5 * a3c0_24_5_1_2
   - p0_24_6 * a3c0_24_6_1_2 - p0_24_7 * a3c0_24_7_1_2
   - p0_24_8 * a3c0_24_8_1_2 - p0_24_9 * a3c0_24_9_1_2
   - p0_24_10 * a3c0_24_10_1_2 ] = 0
 qc488: p3a1_24_2_0 + [ - p0_24_0 * a3c0_24_0_2_0 - p0_24_1 * a3c0_24_1_2_0
   - p0_24_2 * a3c0_24_2_2_0 - p0_24_3 * a3c0_24_3_2_0
   - p0_24_4 * a3c0_24_4_2_0 - p0_24_5 * a3c0_24_5_2_0
   - p0_24_6 * a3c0_24_6_2_0 - p0_24_7 * a3c0_24_7_2_0
   - p0_24_8 * a3c0_24_8_2_0 - p0_24_9 * a3c0_24_9_2_0
   - p0_24_10 * a3c0_24_10_2_0 ] = 0
 qc489: p3a1_24_2_1 + [ - p0_24_0 * a3c0_24_0_2_1 - p0_24_1 * a3c0_24_1_2_1
   - p0_24_2 * a3c0_24_2_2_1 - p0_24_3 * a3c0_24_3_2_1
   - p0_24_4 * a3c0_24_4_2_1 - p0_24_5 * a3c0_24_5_2_1
   - p0_24_6 * a3c0_24_6_2_1 - p0_24_7 * a3c0_24_7_2_1
   - p0_24_8 * a3c0_24_8_2_1 - p0_24_9 * a3c0_24_9_2_1
   - p0_24_10 * a3c0_24_10_2_1 ] = 0
 qc490: p3a1_24_2_2 + [ - p0_24_0 * a3c0_24_0_2_2 - p0_24_1 * a3c0_24_1_2_2
   - p0_24_2 * a3c0_24_2_2_2 - p0_24_3 * a3c0_24_3_2_2
   - p0_24_4 * a3c0_24_4_2_2 - p0_24_5 * a3c0_24_5_2_2
   - p0_24_6 * a3c0_24_6_2_2 - p0_24_7 * a3c0_24_7_2_2
   - p0_24_8 * a3c0_24_8_2_2 - p0_24_9 * a3c0_24_9_2_2
   - p0_24_10 * a3c0_24_10_2_2 ] = 0
 qc491: p3a1_24_3_0 + [ - p0_24_0 * a3c0_24_0_3_0 - p0_24_1 * a3c0_24_1_3_0
   - p0_24_2 * a3c0_24_2_3_0 - p0_24_3 * a3c0_24_3_3_0
   - p0_24_4 * a3c0_24_4_3_0 - p0_24_5 * a3c0_24_5_3_0
   - p0_24_6 * a3c0_24_6_3_0 - p0_24_7 * a3c0_24_7_3_0
   - p0_24_8 * a3c0_24_8_3_0 - p0_24_9 * a3c0_24_9_3_0
   - p0_24_10 * a3c0_24_10_3_0 ] = 0
 qc492: p3a1_24_3_1 + [ - p0_24_0 * a3c0_24_0_3_1 - p0_24_1 * a3c0_24_1_3_1
   - p0_24_2 * a3c0_24_2_3_1 - p0_24_3 * a3c0_24_3_3_1
   - p0_24_4 * a3c0_24_4_3_1 - p0_24_5 * a3c0_24_5_3_1
   - p0_24_6 * a3c0_24_6_3_1 - p0_24_7 * a3c0_24_7_3_1
   - p0_24_8 * a3c0_24_8_3_1 - p0_24_9 * a3c0_24_9_3_1
   - p0_24_10 * a3c0_24_10_3_1 ] = 0
 qc493: p3a1_24_3_2 + [ - p0_24_0 * a3c0_24_0_3_2 - p0_24_1 * a3c0_24_1_3_2
   - p0_24_2 * a3c0_24_2_3_2 - p0_24_3 * a3c0_24_3_3_2
   - p0_24_4 * a3c0_24_4_3_2 - p0_24_5 * a3c0_24_5_3_2
   - p0_24_6 * a3c0_24_6_3_2 - p0_24_7 * a3c0_24_7_3_2
   - p0_24_8 * a3c0_24_8_3_2 - p0_24_9 * a3c0_24_9_3_2
   - p0_24_10 * a3c0_24_10_3_2 ] = 0
 qc494: q3t1_24_0_0 + [ - p3a1_24_1_0 * p3a1_24_1_1 ] = 0
 qc495: p1_24_2 - p3a1_24_1_0 - p3a1_24_1_1 + q3t1_24_0_0 + [ ] = 0
 qc496: p1_24_3 - p3a1_24_1_2 - q3t1_24_0_0 + [ p3a1_24_1_2 * q3t1_24_0_0 ]
   = 0
 qc497: med3a1_24_0 + [ - p3a1_24_1_2 * q3t1_24_0_0 ] = 0
 qc498: q3t1_24_1_0 + [ - p3a1_24_2_0 * p3a1_24_2_1 ] = 0
 qc499: p1_24_4 - p3a1_24_2_0 - p3a1_24_2_1 + q3t1_24_1_0 + [ ] = 0
 qc500: p1_24_5 - p3a1_24_2_2 - q3t1_24_1_0 + [ p3a1_24_2_2 * q3t1_24_1_0 ]
   = 0
 qc501: med3a1_24_1 + [ - p3a1_24_2_2 * q3t1_24_1_0 ] = 0
 qc502: q3t1_24_2_0 + [ - p3a1_24_3_0 * p3a1_24_3_1 ] = 0
 qc503: p1_24_6 - p3a1_24_3_0 - p3a1_24_3_1 + q3t1_24_2_0 + [ ] = 0
 qc504: p1_24_7 - p3a1_24_3_2 - q3t1_24_2_0 + [ p3a1_24_3_2 * q3t1_24_2_0 ]
   = 0
 qc505: med3a1_24_2 + [ - p3a1_24_3_2 * q3t1_24_2_0 ] = 0
 qc506: - p1_25_0 + [ p0_25_0 * rb0_25_0_0 + p0_25_1 * rb0_25_1_0
   + p0_25_2 * rb0_25_2_0 + p0_25_3 * rb0_25_3_0 + p0_25_4 * rb0_25_4_0
   + p0_25_5 * rb0_25_5_0 + p0_25_6 * rb0_25_6_0 + p0_25_7 * rb0_25_7_0
   + p0_25_8 * rb0_25_8_0 + p0_25_9 * rb0_25_9_0 ] = 0
 qc507: - p1_25_1 + [ p0_25_0 * rb0_25_0_1 + p0_25_1 * rb0_25_1_1
   + p0_25_2 * rb0_25_2_1 + p0_25_3 * rb0_25_3_1 + p0_25_4 * rb0_25_4_1
   + p0_25_5 * rb0_25_5_1 + p0_25_6 * rb0_25_6_1 + p0_25_7 * rb0_25_7_1
   + p0_25_8 * rb0_25_8_1 + p0_25_9 * rb0_25_9_1 ] = 0
 qc508: - p1_25_2 + [ p0_25_0 * rb0_25_0_2 + p0_25_1 * rb0_25_1_2
   + p0_25_2 * rb0_25_2_2 + p0_25_3 * rb0_25_3_2 + p0_25_4 * rb0_25_4_2
   + p0_25_5 * rb0_25_5_2 + p0_25_6 * rb0_25_6_2 + p0_25_7 * rb0_25_7_2
   + p0_25_8 * rb0_25_8_2 + p0_25_9 * rb0_25_9_2 ] = 0
 qc509: - p1_25_3 + [ p0_25_0 * rb0_25_0_3 + p0_25_1 * rb0_25_1_3
   + p0_25_2 * rb0_25_2_3 + p0_25_3 * rb0_25_3_3 + p0_25_4 * rb0_25_4_3
   + p0_25_5 * rb0_25_5_3 + p0_25_6 * rb0_25_6_3 + p0_25_7 * rb0_25_7_3
   + p0_25_8 * rb0_25_8_3 + p0_25_9 * rb0_25_9_3 ] = 0
 qc510: - p1_25_4 + [ p0_25_0 * rb0_25_0_4 + p0_25_1 * rb0_25_1_4
   + p0_25_2 * rb0_25_2_4 + p0_25_3 * rb0_25_3_4 + p0_25_4 * rb0_25_4_4
   + p0_25_5 * rb0_25_5_4 + p0_25_6 * rb0_25_6_4 + p0_25_7 * rb0_25_7_4
   + p0_25_8 * rb0_25_8_4 + p0_25_9 * rb0_25_9_4 ] = 0
 qc511: - p1_25_5 + [ p0_25_0 * rb0_25_0_5 + p0_25_1 * rb0_25_1_5
   + p0_25_2 * rb0_25_2_5 + p0_25_3 * rb0_25_3_5 + p0_25_4 * rb0_25_4_5
   + p0_25_5 * rb0_25_5_5 + p0_25_6 * rb0_25_6_5 + p0_25_7 * rb0_25_7_5
   + p0_25_8 * rb0_25_8_5 + p0_25_9 * rb0_25_9_5 ] = 0
 qc512: p4a1_25_1_0 + [ - p0_25_0 * a4c0_25_0_1_0 - p0_25_1 * a4c0_25_1_1_0
   - p0_25_2 * a4c0_25_2_1_0 - p0_25_3 * a4c0_25_3_1_0
   - p0_25_4 * a4c0_25_4_1_0 - p0_25_5 * a4c0_25_5_1_0
   - p0_25_6 * a4c0_25_6_1_0 - p0_25_7 * a4c0_25_7_1_0
   - p0_25_8 * a4c0_25_8_1_0 - p0_25_9 * a4c0_25_9_1_0 ] = 0
 qc513: p4a1_25_1_1 + [ - p0_25_0 * a4c0_25_0_1_1 - p0_25_1 * a4c0_25_1_1_1
   - p0_25_2 * a4c0_25_2_1_1 - p0_25_3 * a4c0_25_3_1_1
   - p0_25_4 * a4c0_25_4_1_1 - p0_25_5 * a4c0_25_5_1_1
   - p0_25_6 * a4c0_25_6_1_1 - p0_25_7 * a4c0_25_7_1_1
   - p0_25_8 * a4c0_25_8_1_1 - p0_25_9 * a4c0_25_9_1_1 ] = 0
 qc514: p4a1_25_1_2 + [ - p0_25_0 * a4c0_25_0_1_2 - p0_25_1 * a4c0_25_1_1_2
   - p0_25_2 * a4c0_25_2_1_2 - p0_25_3 * a4c0_25_3_1_2
   - p0_25_4 * a4c0_25_4_1_2 - p0_25_5 * a4c0_25_5_1_2
   - p0_25_6 * a4c0_25_6_1_2 - p0_25_7 * a4c0_25_7_1_2
   - p0_25_8 * a4c0_25_8_1_2 - p0_25_9 * a4c0_25_9_1_2 ] = 0
 qc515: p4a1_25_1_3 + [ - p0_25_0 * a4c0_25_0_1_3 - p0_25_1 * a4c0_25_1_1_3
   - p0_25_2 * a4c0_25_2_1_3 - p0_25_3 * a4c0_25_3_1_3
   - p0_25_4 * a4c0_25_4_1_3 - p0_25_5 * a4c0_25_5_1_3
   - p0_25_6 * a4c0_25_6_1_3 - p0_25_7 * a4c0_25_7_1_3
   - p0_25_8 * a4c0_25_8_1_3 - p0_25_9 * a4c0_25_9_1_3 ] = 0
 qc516: q4t1_25_0_0 + [ - p4a1_25_1_2 * p4a1_25_1_3 ] = 0
 qc517: q4t1_25_0_1 + [ - p4a1_25_1_0 * p4a1_25_1_3 ] = 0
 qc518: q4t1_25_0_2 + [ - p4a1_25_1_0 * p4a1_25_1_1 ] = 0
 qc519: q4t1_25_0_3 + [ - p4a1_25_1_1 * p4a1_25_1_3 ] = 0
 qc520: q4t1_25_0_4 + [ - p4a1_25_1_1 * p4a1_25_1_2 ] = 0
 qc521: p1_25_6 - p4a1_25_1_0 - p4a1_25_1_1 - q4t1_25_0_0 - 2 q4t1_25_0_1
   - q4t1_25_0_2 + [ p4a1_25_1_0 * q4t1_25_0_0 + p4a1_25_1_1 * q4t1_25_0_0
   + 2 p4a1_25_1_3 * q4t1_25_0_2 - q4t1_25_0_1 * q4t1_25_0_4 ] = 0
 qc522: p1_25_7 - p4a1_25_1_2 - p4a1_25_1_3 + q4t1_25_0_0 - q4t1_25_0_2 + [
   p4a1_25_1_2 * q4t1_25_0_2 + p4a1_25_1_3 * q4t1_25_0_2
   - q4t1_25_0_0 * q4t1_25_0_2 ] = 0
 qc523: med4a1_25_0 + [ - p4a1_25_1_0 * q4t1_25_0_3
   - p4a1_25_1_2 * q4t1_25_0_2 - p4a1_25_1_2 * q4t1_25_0_3
   - p4a1_25_1_3 * q4t1_25_0_2 + 2 q4t1_25_0_0 * q4t1_25_0_2 ] = 0
 qc524: - p1_26_0 + [ p0_26_0 * rb0_26_0_0 + p0_26_1 * rb0_26_1_0
   + p0_26_2 * rb0_26_2_0 + p0_26_3 * rb0_26_3_0 + p0_26_4 * rb0_26_4_0
   + p0_26_5 * rb0_26_5_0 + p0_26_6 * rb0_26_6_0 + p0_26_7 * rb0_26_7_0
   + p0_26_8 * rb0_26_8_0 ] = 0
 qc525: p4a1_26_1_0 + [ - p0_26_0 * a4c0_26_0_1_0 - p0_26_1 * a4c0_26_1_1_0
   - p0_26_2 * a4c0_26_2_1_0 - p0_26_3 * a4c0_26_3_1_0
   - p0_26_4 * a4c0_26_4_1_0 - p0_26_5 * a4c0_26_5_1_0
   - p0_26_6 * a4c0_26_6_1_0 - p0_26_7 * a4c0_26_7_1_0
   - p0_26_8 * a4c0_26_8_1_0 ] = 0
 qc526: p4a1_26_1_1 + [ - p0_26_0 * a4c0_26_0_1_1 - p0_26_1 * a4c0_26_1_1_1
   - p0_26_2 * a4c0_26_2_1_1 - p0_26_3 * a4c0_26_3_1_1
   - p0_26_4 * a4c0_26_4_1_1 - p0_26_5 * a4c0_26_5_1_1
   - p0_26_6 * a4c0_26_6_1_1 - p0_26_7 * a4c0_26_7_1_1
   - p0_26_8 * a4c0_26_8_1_1 ] = 0
 qc527: p4a1_26_1_2 + [ - p0_26_0 * a4c0_26_0_1_2 - p0_26_1 * a4c0_26_1_1_2
   - p0_26_2 * a4c0_26_2_1_2 - p0_26_3 * a4c0_26_3_1_2
   - p0_26_4 * a4c0_26_4_1_2 - p0_26_5 * a4c0_26_5_1_2
   - p0_26_6 * a4c0_26_6_1_2 - p0_26_7 * a4c0_26_7_1_2
   - p0_26_8 * a4c0_26_8_1_2 ] = 0
 qc528: p4a1_26_1_3 + [ - p0_26_0 * a4c0_26_0_1_3 - p0_26_1 * a4c0_26_1_1_3
   - p0_26_2 * a4c0_26_2_1_3 - p0_26_3 * a4c0_26_3_1_3
   - p0_26_4 * a4c0_26_4_1_3 - p0_26_5 * a4c0_26_5_1_3
   - p0_26_6 * a4c0_26_6_1_3 - p0_26_7 * a4c0_26_7_1_3
   - p0_26_8 * a4c0_26_8_1_3 ] = 0
 qc529: p4a1_26_2_0 + [ - p0_26_0 * a4c0_26_0_2_0 - p0_26_1 * a4c0_26_1_2_0
   - p0_26_2 * a4c0_26_2_2_0 - p0_26_3 * a4c0_26_3_2_0
   - p0_26_4 * a4c0_26_4_2_0 - p0_26_5 * a4c0_26_5_2_0
   - p0_26_6 * a4c0_26_6_2_0 - p0_26_7 * a4c0_26_7_2_0
   - p0_26_8 * a4c0_26_8_2_0 ] = 0
 qc530: p4a1_26_2_1 + [ - p0_26_0 * a4c0_26_0_2_1 - p0_26_1 * a4c0_26_1_2_1
   - p0_26_2 * a4c0_26_2_2_1 - p0_26_3 * a4c0_26_3_2_1
   - p0_26_4 * a4c0_26_4_2_1 - p0_26_5 * a4c0_26_5_2_1
   - p0_26_6 * a4c0_26_6_2_1 - p0_26_7 * a4c0_26_7_2_1
   - p0_26_8 * a4c0_26_8_2_1 ] = 0
 qc531: p4a1_26_2_2 + [ - p0_26_0 * a4c0_26_0_2_2 - p0_26_1 * a4c0_26_1_2_2
   - p0_26_2 * a4c0_26_2_2_2 - p0_26_3 * a4c0_26_3_2_2
   - p0_26_4 * a4c0_26_4_2_2 - p0_26_5 * a4c0_26_5_2_2
   - p0_26_6 * a4c0_26_6_2_2 - p0_26_7 * a4c0_26_7_2_2
   - p0_26_8 * a4c0_26_8_2_2 ] = 0
 qc532: p4a1_26_2_3 + [ - p0_26_0 * a4c0_26_0_2_3 - p0_26_1 * a4c0_26_1_2_3
   - p0_26_2 * a4c0_26_2_2_3 - p0_26_3 * a4c0_26_3_2_3
   - p0_26_4 * a4c0_26_4_2_3 - p0_26_5 * a4c0_26_5_2_3
   - p0_26_6 * a4c0_26_6_2_3 - p0_26_7 * a4c0_26_7_2_3
   - p0_26_8 * a4c0_26_8_2_3 ] = 0
 qc533: q4t1_26_0_0 + [ - p4a1_26_1_2 * p4a1_26_1_3 ] = 0
 qc534: q4t1_26_0_1 + [ - p4a1_26_1_0 * p4a1_26_1_3 ] = 0
 qc535: q4t1_26_0_2 + [ - p4a1_26_1_0 * p4a1_26_1_1 ] = 0
 qc536: q4t1_26_0_3 + [ - p4a1_26_1_1 * p4a1_26_1_3 ] = 0
 qc537: q4t1_26_0_4 + [ - p4a1_26_1_1 * p4a1_26_1_2 ] = 0
 qc538: p1_26_1 - p4a1_26_1_0 - p4a1_26_1_1 - q4t1_26_0_0 - 2 q4t1_26_0_1
   - q4t1_26_0_2 + [ p4a1_26_1_0 * q4t1_26_0_0 + p4a1_26_1_1 * q4t1_26_0_0
   + 2 p4a1_26_1_3 * q4t1_26_0_2 - q4t1_26_0_1 * q4t1_26_0_4 ] = 0
 qc539: p1_26_2 - p4a1_26_1_2 - p4a1_26_1_3 + q4t1_26_0_0 - q4t1_26_0_2 + [
   p4a1_26_1_2 * q4t1_26_0_2 + p4a1_26_1_3 * q4t1_26_0_2
   - q4t1_26_0_0 * q4t1_26_0_2 ] = 0
 qc540: med4a1_26_0 + [ - p4a1_26_1_0 * q4t1_26_0_3
   - p4a1_26_1_2 * q4t1_26_0_2 - p4a1_26_1_2 * q4t1_26_0_3
   - p4a1_26_1_3 * q4t1_26_0_2 + 2 q4t1_26_0_0 * q4t1_26_0_2 ] = 0
 qc541: q4t1_26_1_0 + [ - p4a1_26_2_2 * p4a1_26_2_3 ] = 0
 qc542: q4t1_26_1_1 + [ - p4a1_26_2_0 * p4a1_26_2_3 ] = 0
 qc543: q4t1_26_1_2 + [ - p4a1_26_2_0 * p4a1_26_2_1 ] = 0
 qc544: q4t1_26_1_3 + [ - p4a1_26_2_1 * p4a1_26_2_3 ] = 0
 qc545: q4t1_26_1_4 + [ - p4a1_26_2_1 * p4a1_26_2_2 ] = 0
 qc546: p1_26_3 - p4a1_26_2_0 - p4a1_26_2_1 - q4t1_26_1_0 - 2 q4t1_26_1_1
   - q4t1_26_1_2 + [ p4a1_26_2_0 * q4t1_26_1_0 + p4a1_26_2_1 * q4t1_26_1_0
   + 2 p4a1_26_2_3 * q4t1_26_1_2 - q4t1_26_1_1 * q4t1_26_1_4 ] = 0
 qc547: p1_26_4 - p4a1_26_2_2 - p4a1_26_2_3 + q4t1_26_1_0 - q4t1_26_1_2 + [
   p4a1_26_2_2 * q4t1_26_1_2 + p4a1_26_2_3 * q4t1_26_1_2
   - q4t1_26_1_0 * q4t1_26_1_2 ] = 0
 qc548: med4a1_26_1 + [ - p4a1_26_2_0 * q4t1_26_1_3
   - p4a1_26_2_2 * q4t1_26_1_2 - p4a1_26_2_2 * q4t1_26_1_3
   - p4a1_26_2_3 * q4t1_26_1_2 + 2 q4t1_26_1_0 * q4t1_26_1_2 ] = 0
 qc549: - p1_27_0 + [ p0_27_0 * rb0_27_0_0 + p0_27_1 * rb0_27_1_0
   + p0_27_2 * rb0_27_2_0 + p0_27_3 * rb0_27_3_0 + p0_27_4 * rb0_27_4_0
   + p0_27_5 * rb0_27_5_0 + p0_27_6 * rb0_27_6_0 + p0_27_7 * rb0_27_7_0 ]
   = 0
 qc550: - p1_27_1 + [ p0_27_0 * rb0_27_0_1 + p0_27_1 * rb0_27_1_1
   + p0_27_2 * rb0_27_2_1 + p0_27_3 * rb0_27_3_1 + p0_27_4 * rb0_27_4_1
   + p0_27_5 * rb0_27_5_1 + p0_27_6 * rb0_27_6_1 + p0_27_7 * rb0_27_7_1 ]
   = 0
 qc551: p3a1_27_1_0 + [ - p0_27_0 * a3c0_27_0_1_0 - p0_27_1 * a3c0_27_1_1_0
   - p0_27_2 * a3c0_27_2_1_0 - p0_27_3 * a3c0_27_3_1_0
   - p0_27_4 * a3c0_27_4_1_0 - p0_27_5 * a3c0_27_5_1_0
   - p0_27_6 * a3c0_27_6_1_0 - p0_27_7 * a3c0_27_7_1_0 ] = 0
 qc552: p3a1_27_1_1 + [ - p0_27_0 * a3c0_27_0_1_1 - p0_27_1 * a3c0_27_1_1_1
   - p0_27_2 * a3c0_27_2_1_1 - p0_27_3 * a3c0_27_3_1_1
   - p0_27_4 * a3c0_27_4_1_1 - p0_27_5 * a3c0_27_5_1_1
   - p0_27_6 * a3c0_27_6_1_1 - p0_27_7 * a3c0_27_7_1_1 ] = 0
 qc553: p3a1_27_1_2 + [ - p0_27_0 * a3c0_27_0_1_2 - p0_27_1 * a3c0_27_1_1_2
   - p0_27_2 * a3c0_27_2_1_2 - p0_27_3 * a3c0_27_3_1_2
   - p0_27_4 * a3c0_27_4_1_2 - p0_27_5 * a3c0_27_5_1_2
   - p0_27_6 * a3c0_27_6_1_2 - p0_27_7 * a3c0_27_7_1_2 ] = 0
 qc554: p3a1_27_2_0 + [ - p0_27_0 * a3c0_27_0_2_0 - p0_27_1 * a3c0_27_1_2_0
   - p0_27_2 * a3c0_27_2_2_0 - p0_27_3 * a3c0_27_3_2_0
   - p0_27_4 * a3c0_27_4_2_0 - p0_27_5 * a3c0_27_5_2_0
   - p0_27_6 * a3c0_27_6_2_0 - p0_27_7 * a3c0_27_7_2_0 ] = 0
 qc555: p3a1_27_2_1 + [ - p0_27_0 * a3c0_27_0_2_1 - p0_27_1 * a3c0_27_1_2_1
   - p0_27_2 * a3c0_27_2_2_1 - p0_27_3 * a3c0_27_3_2_1
   - p0_27_4 * a3c0_27_4_2_1 - p0_27_5 * a3c0_27_5_2_1
   - p0_27_6 * a3c0_27_6_2_1 - p0_27_7 * a3c0_27_7_2_1 ] = 0
 qc556: p3a1_27_2_2 + [ - p0_27_0 * a3c0_27_0_2_2 - p0_27_1 * a3c0_27_1_2_2
   - p0_27_2 * a3c0_27_2_2_2 - p0_27_3 * a3c0_27_3_2_2
   - p0_27_4 * a3c0_27_4_2_2 - p0_27_5 * a3c0_27_5_2_2
   - p0_27_6 * a3c0_27_6_2_2 - p0_27_7 * a3c0_27_7_2_2 ] = 0
 qc557: q3t1_27_0_0 + [ - p3a1_27_1_0 * p3a1_27_1_1 ] = 0
 qc558: p1_27_2 - p3a1_27_1_0 - p3a1_27_1_1 + q3t1_27_0_0 + [ ] = 0
 qc559: p1_27_3 - p3a1_27_1_2 - q3t1_27_0_0 + [ p3a1_27_1_2 * q3t1_27_0_0 ]
   = 0
 qc560: med3a1_27_0 + [ - p3a1_27_1_2 * q3t1_27_0_0 ] = 0
 qc561: q3t1_27_1_0 + [ - p3a1_27_2_0 * p3a1_27_2_1 ] = 0
 qc562: p1_27_4 - p3a1_27_2_0 - p3a1_27_2_1 + q3t1_27_1_0 + [ ] = 0
 qc563: p1_27_5 - p3a1_27_2_2 - q3t1_27_1_0 + [ p3a1_27_2_2 * q3t1_27_1_0 ]
   = 0
 qc564: med3a1_27_1 + [ - p3a1_27_2_2 * q3t1_27_1_0 ] = 0
 qc565: - p1_28_0 + [ p0_28_0 * rb0_28_0_0 + p0_28_1 * rb0_28_1_0
   + p0_28_2 * rb0_28_2_0 + p0_28_3 * rb0_28_3_0 + p0_28_4 * rb0_28_4_0
   + p0_28_5 * rb0_28_5_0 + p0_28_6 * rb0_28_6_0 ] = 0
 qc566: p3a1_28_1_0 + [ - p0_28_0 * a3c0_28_0_1_0 - p0_28_1 * a3c0_28_1_1_0
   - p0_28_2 * a3c0_28_2_1_0 - p0_28_3 * a3c0_28_3_1_0
   - p0_28_4 * a3c0_28_4_1_0 - p0_28_5 * a3c0_28_5_1_0
   - p0_28_6 * a3c0_28_6_1_0 ] = 0
 qc567: p3a1_28_1_1 + [ - p0_28_0 * a3c0_28_0_1_1 - p0_28_1 * a3c0_28_1_1_1
   - p0_28_2 * a3c0_28_2_1_1 - p0_28_3 * a3c0_28_3_1_1
   - p0_28_4 * a3c0_28_4_1_1 - p0_28_5 * a3c0_28_5_1_1
   - p0_28_6 * a3c0_28_6_1_1 ] = 0
 qc568: p3a1_28_1_2 + [ - p0_28_0 * a3c0_28_0_1_2 - p0_28_1 * a3c0_28_1_1_2
   - p0_28_2 * a3c0_28_2_1_2 - p0_28_3 * a3c0_28_3_1_2
   - p0_28_4 * a3c0_28_4_1_2 - p0_28_5 * a3c0_28_5_1_2
   - p0_28_6 * a3c0_28_6_1_2 ] = 0
 qc569: p3a1_28_2_0 + [ - p0_28_0 * a3c0_28_0_2_0 - p0_28_1 * a3c0_28_1_2_0
   - p0_28_2 * a3c0_28_2_2_0 - p0_28_3 * a3c0_28_3_2_0
   - p0_28_4 * a3c0_28_4_2_0 - p0_28_5 * a3c0_28_5_2_0
   - p0_28_6 * a3c0_28_6_2_0 ] = 0
 qc570: p3a1_28_2_1 + [ - p0_28_0 * a3c0_28_0_2_1 - p0_28_1 * a3c0_28_1_2_1
   - p0_28_2 * a3c0_28_2_2_1 - p0_28_3 * a3c0_28_3_2_1
   - p0_28_4 * a3c0_28_4_2_1 - p0_28_5 * a3c0_28_5_2_1
   - p0_28_6 * a3c0_28_6_2_1 ] = 0
 qc571: p3a1_28_2_2 + [ - p0_28_0 * a3c0_28_0_2_2 - p0_28_1 * a3c0_28_1_2_2
   - p0_28_2 * a3c0_28_2_2_2 - p0_28_3 * a3c0_28_3_2_2
   - p0_28_4 * a3c0_28_4_2_2 - p0_28_5 * a3c0_28_5_2_2
   - p0_28_6 * a3c0_28_6_2_2 ] = 0
 qc572: q3t1_28_0_0 + [ - p3a1_28_1_0 * p3a1_28_1_1 ] = 0
 qc573: p1_28_1 - p3a1_28_1_0 - p3a1_28_1_1 + q3t1_28_0_0 + [ ] = 0
 qc574: p1_28_2 - p3a1_28_1_2 - q3t1_28_0_0 + [ p3a1_28_1_2 * q3t1_28_0_0 ]
   = 0
 qc575: med3a1_28_0 + [ - p3a1_28_1_2 * q3t1_28_0_0 ] = 0
 qc576: q3t1_28_1_0 + [ - p3a1_28_2_0 * p3a1_28_2_1 ] = 0
 qc577: p1_28_3 - p3a1_28_2_0 - p3a1_28_2_1 + q3t1_28_1_0 + [ ] = 0
 qc578: p1_28_4 - p3a1_28_2_2 - q3t1_28_1_0 + [ p3a1_28_2_2 * q3t1_28_1_0 ]
   = 0
 qc579: med3a1_28_1 + [ - p3a1_28_2_2 * q3t1_28_1_0 ] = 0
 qc580: - p1_29_0 + [ p0_29_0 * rb0_29_0_0 + p0_29_1 * rb0_29_1_0
   + p0_29_2 * rb0_29_2_0 + p0_29_3 * rb0_29_3_0 + p0_29_4 * rb0_29_4_0
   + p0_29_5 * rb0_29_5_0 ] = 0
 qc581: - p1_29_1 + [ p0_29_0 * rb0_29_0_1 + p0_29_1 * rb0_29_1_1
   + p0_29_2 * rb0_29_2_1 + p0_29_3 * rb0_29_3_1 + p0_29_4 * rb0_29_4_1
   + p0_29_5 * rb0_29_5_1 ] = 0
 qc582: - p1_29_2 + [ p0_29_0 * rb0_29_0_2 + p0_29_1 * rb0_29_1_2
   + p0_29_2 * rb0_29_2_2 + p0_29_3 * rb0_29_3_2 + p0_29_4 * rb0_29_4_2
   + p0_29_5 * rb0_29_5_2 ] = 0
 qc583: - p1_29_3 + [ p0_29_0 * rb0_29_0_3 + p0_29_1 * rb0_29_1_3
   + p0_29_2 * rb0_29_2_3 + p0_29_3 * rb0_29_3_3 + p0_29_4 * rb0_29_4_3
   + p0_29_5 * rb0_29_5_3 ] = 0
 qc584: - p1_29_4 + [ p0_29_0 * rb0_29_0_4 + p0_29_1 * rb0_29_1_4
   + p0_29_2 * rb0_29_2_4 + p0_29_3 * rb0_29_3_4 + p0_29_4 * rb0_29_4_4
   + p0_29_5 * rb0_29_5_4 ] = 0
 qc585: - p1_29_5 + [ p0_29_0 * rb0_29_0_5 + p0_29_1 * rb0_29_1_5
   + p0_29_2 * rb0_29_2_5 + p0_29_3 * rb0_29_3_5 + p0_29_4 * rb0_29_4_5
   + p0_29_5 * rb0_29_5_5 ] = 0
 qc586: - p1_30_0 + [ p0_30_0 * rb0_30_0_0 + p0_30_1 * rb0_30_1_0
   + p0_30_2 * rb0_30_2_0 + p0_30_3 * rb0_30_3_0 + p0_30_4 * rb0_30_4_0 ]
   = 0
 qc587: - p1_30_1 + [ p0_30_0 * rb0_30_0_1 + p0_30_1 * rb0_30_1_1
   + p0_30_2 * rb0_30_2_1 + p0_30_3 * rb0_30_3_1 + p0_30_4 * rb0_30_4_1 ]
   = 0
 qc588: - p1_30_2 + [ p0_30_0 * rb0_30_0_2 + p0_30_1 * rb0_30_1_2
   + p0_30_2 * rb0_30_2_2 + p0_30_3 * rb0_30_3_2 + p0_30_4 * rb0_30_4_2 ]
   = 0
 qc589: - p1_30_3 + [ p0_30_0 * rb0_30_0_3 + p0_30_1 * rb0_30_1_3
   + p0_30_2 * rb0_30_2_3 + p0_30_3 * rb0_30_3_3 + p0_30_4 * rb0_30_4_3 ]
   = 0
 qc590: - p1_30_4 + [ p0_30_0 * rb0_30_0_4 + p0_30_1 * rb0_30_1_4
   + p0_30_2 * rb0_30_2_4 + p0_30_3 * rb0_30_3_4 + p0_30_4 * rb0_30_4_4 ]
   = 0
 qc591: - p1_31_0 + [ p0_31_0 * rb0_31_0_0 + p0_31_1 * rb0_31_1_0
   + p0_31_2 * rb0_31_2_0 + p0_31_3 * rb0_31_3_0 ] = 0
 qc592: - p1_31_1 + [ p0_31_0 * rb0_31_0_1 + p0_31_1 * rb0_31_1_1
   + p0_31_2 * rb0_31_2_1 + p0_31_3 * rb0_31_3_1 ] = 0
 qc593: - p1_31_2 + [ p0_31_0 * rb0_31_0_2 + p0_31_1 * rb0_31_1_2
   + p0_31_2 * rb0_31_2_2 + p0_31_3 * rb0_31_3_2 ] = 0
 qc594: - p1_31_3 + [ p0_31_0 * rb0_31_0_3 + p0_31_1 * rb0_31_1_3
   + p0_31_2 * rb0_31_2_3 + p0_31_3 * rb0_31_3_3 ] = 0
 qc595: - p1_32_0 + [ p0_32_0 * rb0_32_0_0 + p0_32_1 * rb0_32_1_0
   + p0_32_2 * rb0_32_2_0 ] = 0
 qc596: - p1_32_1 + [ p0_32_0 * rb0_32_0_1 + p0_32_1 * rb0_32_1_1
   + p0_32_2 * rb0_32_2_1 ] = 0
 qc597: - p1_32_2 + [ p0_32_0 * rb0_32_0_2 + p0_32_1 * rb0_32_1_2
   + p0_32_2 * rb0_32_2_2 ] = 0
 qc598: - p1_33_0 + [ p0_33_0 * rb0_33_0_0 + p0_33_1 * rb0_33_1_0 ] = 0
 qc599: - p1_33_1 + [ p0_33_0 * rb0_33_0_1 + p0_33_1 * rb0_33_1_1 ] = 0
 qc600: - p1_34_0 + [ p0_34_0 * rb0_34_0_0 ] = 0
 qc601: - p2_4_0 + [ p1_4_0 * rb1_4_0_0 ] = 0
 qc602: - p2_5_0 + [ p1_5_0 * rb1_5_0_0 + p1_5_1 * rb1_5_1_0 ] = 0
 qc603: - p2_5_1 + [ p1_5_0 * rb1_5_0_1 + p1_5_1 * rb1_5_1_1 ] = 0
 qc604: pf2_6_1_0 + [ - p1_6_0 * f1_6_0_1_0 - p1_6_1 * f1_6_1_1_0
   - p1_6_2 * f1_6_2_1_0 ] = 0
 qc605: pf2_6_1_1 + [ - p1_6_0 * f1_6_0_1_1 - p1_6_1 * f1_6_1_1_1
   - p1_6_2 * f1_6_2_1_1 ] = 0
 qc606: pf2_6_1_2 + [ - p1_6_0 * f1_6_0_1_2 - p1_6_1 * f1_6_1_1_2
   - p1_6_2 * f1_6_2_1_2 ] = 0
 qc607: qft2_6_0_0 + [ - pf2_6_1_0 * pf2_6_1_1 ] = 0
 qc608: qft2_6_0_1 + [ - pf2_6_1_0 * pf2_6_1_2 ] = 0
 qc609: qft2_6_0_2 + [ - pf2_6_1_1 * pf2_6_1_2 ] = 0
 qc610: p2_6_0 - pf2_6_1_0 - pf2_6_1_1 - pf2_6_1_2 + 2 qft2_6_0_0
   + 2 qft2_6_0_1 + 2 qft2_6_0_2 + [ - 4 pf2_6_1_2 * qft2_6_0_0 ] = 0
 qc611: p2_5_2 - qft2_6_0_0 - qft2_6_0_1 - qft2_6_0_2 + [
   2 pf2_6_1_2 * qft2_6_0_0 ] = 0
 qc612: - p2_7_0 + [ p1_7_0 * rb1_7_0_0 + p1_7_1 * rb1_7_1_0
   + p1_7_2 * rb1_7_2_0 + p1_7_3 * rb1_7_3_0 ] = 0
 qc613: - p2_7_1 + [ p1_7_0 * rb1_7_0_1 + p1_7_1 * rb1_7_1_1
   + p1_7_2 * rb1_7_2_1 + p1_7_3 * rb1_7_3_1 ] = 0
 qc614: - p2_7_2 + [ p1_7_0 * rb1_7_0_2 + p1_7_1 * rb1_7_1_2
   + p1_7_2 * rb1_7_2_2 + p1_7_3 * rb1_7_3_2 ] = 0
 qc615: - p2_7_3 + [ p1_7_0 * rb1_7_0_3 + p1_7_1 * rb1_7_1_3
   + p1_7_2 * rb1_7_2_3 + p1_7_3 * rb1_7_3_3 ] = 0
 qc616: - p2_8_0 + [ p1_8_0 * rb1_8_0_0 + p1_8_1 * rb1_8_1_0
   + p1_8_2 * rb1_8_2_0 + p1_8_3 * rb1_8_3_0 + p1_8_4 * rb1_8_4_0
   + p1_8_5 * rb1_8_5_0 + p1_8_6 * rb1_8_6_0 ] = 0
 qc617: pf2_8_1_0 + [ - p1_8_0 * f1_8_0_1_0 - p1_8_1 * f1_8_1_1_0
   - p1_8_2 * f1_8_2_1_0 - p1_8_3 * f1_8_3_1_0 - p1_8_4 * f1_8_4_1_0
   - p1_8_5 * f1_8_5_1_0 - p1_8_6 * f1_8_6_1_0 ] = 0
 qc618: pf2_8_1_1 + [ - p1_8_0 * f1_8_0_1_1 - p1_8_1 * f1_8_1_1_1
   - p1_8_2 * f1_8_2_1_1 - p1_8_3 * f1_8_3_1_1 - p1_8_4 * f1_8_4_1_1
   - p1_8_5 * f1_8_5_1_1 - p1_8_6 * f1_8_6_1_1 ] = 0
 qc619: pf2_8_1_2 + [ - p1_8_0 * f1_8_0_1_2 - p1_8_1 * f1_8_1_1_2
   - p1_8_2 * f1_8_2_1_2 - p1_8_3 * f1_8_3_1_2 - p1_8_4 * f1_8_4_1_2
   - p1_8_5 * f1_8_5_1_2 - p1_8_6 * f1_8_6_1_2 ] = 0
 qc620: pf2_8_2_0 + [ - p1_8_0 * f1_8_0_2_0 - p1_8_1 * f1_8_1_2_0
   - p1_8_2 * f1_8_2_2_0 - p1_8_3 * f1_8_3_2_0 - p1_8_4 * f1_8_4_2_0
   - p1_8_5 * f1_8_5_2_0 - p1_8_6 * f1_8_6_2_0 ] = 0
 qc621: pf2_8_2_1 + [ - p1_8_0 * f1_8_0_2_1 - p1_8_1 * f1_8_1_2_1
   - p1_8_2 * f1_8_2_2_1 - p1_8_3 * f1_8_3_2_1 - p1_8_4 * f1_8_4_2_1
   - p1_8_5 * f1_8_5_2_1 - p1_8_6 * f1_8_6_2_1 ] = 0
 qc622: pf2_8_2_2 + [ - p1_8_0 * f1_8_0_2_2 - p1_8_1 * f1_8_1_2_2
   - p1_8_2 * f1_8_2_2_2 - p1_8_3 * f1_8_3_2_2 - p1_8_4 * f1_8_4_2_2
   - p1_8_5 * f1_8_5_2_2 - p1_8_6 * f1_8_6_2_2 ] = 0
 qc623: qft2_8_0_0 + [ - pf2_8_1_0 * pf2_8_1_1 ] = 0
 qc624: qft2_8_0_1 + [ - pf2_8_1_0 * pf2_8_1_2 ] = 0
 qc625: qft2_8_0_2 + [ - pf2_8_1_1 * pf2_8_1_2 ] = 0
 qc626: p2_8_1 - pf2_8_1_0 - pf2_8_1_1 - pf2_8_1_2 + 2 qft2_8_0_0
   + 2 qft2_8_0_1 + 2 qft2_8_0_2 + [ - 4 pf2_8_1_2 * qft2_8_0_0 ] = 0
 qc627: p2_7_4 - qft2_8_0_0 - qft2_8_0_1 - qft2_8_0_2 + [
   2 pf2_8_1_2 * qft2_8_0_0 ] = 0
 qc628: qft2_8_1_0 + [ - pf2_8_2_0 * pf2_8_2_1 ] = 0
 qc629: qft2_8_1_1 + [ - pf2_8_2_0 * pf2_8_2_2 ] = 0
 qc630: qft2_8_1_2 + [ - pf2_8_2_1 * pf2_8_2_2 ] = 0
 qc631: p2_8_2 - pf2_8_2_0 - pf2_8_2_1 - pf2_8_2_2 + 2 qft2_8_1_0
   + 2 qft2_8_1_1 + 2 qft2_8_1_2 + [ - 4 pf2_8_2_2 * qft2_8_1_0 ] = 0
 qc632: p2_7_5 - qft2_8_1_0 - qft2_8_1_1 - qft2_8_1_2 + [
   2 pf2_8_2_2 * qft2_8_1_0 ] = 0
 qc633: - p2_9_0 + [ p1_9_0 * rb1_9_0_0 + p1_9_1 * rb1_9_1_0
   + p1_9_2 * rb1_9_2_0 + p1_9_3 * rb1_9_3_0 ] = 0
 qc634: pf2_9_1_0 + [ - p1_9_0 * f1_9_0_1_0 - p1_9_1 * f1_9_1_1_0
   - p1_9_2 * f1_9_2_1_0 - p1_9_3 * f1_9_3_1_0 ] = 0
 qc635: pf2_9_1_1 + [ - p1_9_0 * f1_9_0_1_1 - p1_9_1 * f1_9_1_1_1
   - p1_9_2 * f1_9_2_1_1 - p1_9_3 * f1_9_3_1_1 ] = 0
 qc636: pf2_9_1_2 + [ - p1_9_0 * f1_9_0_1_2 - p1_9_1 * f1_9_1_1_2
   - p1_9_2 * f1_9_2_1_2 - p1_9_3 * f1_9_3_1_2 ] = 0
 qc637: qft2_9_0_0 + [ - pf2_9_1_0 * pf2_9_1_1 ] = 0
 qc638: qft2_9_0_1 + [ - pf2_9_1_0 * pf2_9_1_2 ] = 0
 qc639: qft2_9_0_2 + [ - pf2_9_1_1 * pf2_9_1_2 ] = 0
 qc640: p2_9_1 - pf2_9_1_0 - pf2_9_1_1 - pf2_9_1_2 + 2 qft2_9_0_0
   + 2 qft2_9_0_1 + 2 qft2_9_0_2 + [ - 4 pf2_9_1_2 * qft2_9_0_0 ] = 0
 qc641: p2_8_3 - qft2_9_0_0 - qft2_9_0_1 - qft2_9_0_2 + [
   2 pf2_9_1_2 * qft2_9_0_0 ] = 0
 qc642: pf2_10_1_0 + [ - p1_10_0 * f1_10_0_1_0 - p1_10_1 * f1_10_1_1_0
   - p1_10_2 * f1_10_2_1_0 - p1_10_3 * f1_10_3_1_0 - p1_10_4 * f1_10_4_1_0
   - p1_10_5 * f1_10_5_1_0 ] = 0
 qc643: pf2_10_1_1 + [ - p1_10_0 * f1_10_0_1_1 - p1_10_1 * f1_10_1_1_1
   - p1_10_2 * f1_10_2_1_1 - p1_10_3 * f1_10_3_1_1 - p1_10_4 * f1_10_4_1_1
   - p1_10_5 * f1_10_5_1_1 ] = 0
 qc644: pf2_10_1_2 + [ - p1_10_0 * f1_10_0_1_2 - p1_10_1 * f1_10_1_1_2
   - p1_10_2 * f1_10_2_1_2 - p1_10_3 * f1_10_3_1_2 - p1_10_4 * f1_10_4_1_2
   - p1_10_5 * f1_10_5_1_2 ] = 0
 qc645: pf2_10_2_0 + [ - p1_10_0 * f1_10_0_2_0 - p1_10_1 * f1_10_1_2_0
   - p1_10_2 * f1_10_2_2_0 - p1_10_3 * f1_10_3_2_0 - p1_10_4 * f1_10_4_2_0
   - p1_10_5 * f1_10_5_2_0 ] = 0
 qc646: pf2_10_2_1 + [ - p1_10_0 * f1_10_0_2_1 - p1_10_1 * f1_10_1_2_1
   - p1_10_2 * f1_10_2_2_1 - p1_10_3 * f1_10_3_2_1 - p1_10_4 * f1_10_4_2_1
   - p1_10_5 * f1_10_5_2_1 ] = 0
 qc647: pf2_10_2_2 + [ - p1_10_0 * f1_10_0_2_2 - p1_10_1 * f1_10_1_2_2
   - p1_10_2 * f1_10_2_2_2 - p1_10_3 * f1_10_3_2_2 - p1_10_4 * f1_10_4_2_2
   - p1_10_5 * f1_10_5_2_2 ] = 0
 qc648: qft2_10_0_0 + [ - pf2_10_1_0 * pf2_10_1_1 ] = 0
 qc649: qft2_10_0_1 + [ - pf2_10_1_0 * pf2_10_1_2 ] = 0
 qc650: qft2_10_0_2 + [ - pf2_10_1_1 * pf2_10_1_2 ] = 0
 qc651: p2_10_0 - pf2_10_1_0 - pf2_10_1_1 - pf2_10_1_2 + 2 qft2_10_0_0
   + 2 qft2_10_0_1 + 2 qft2_10_0_2 + [ - 4 pf2_10_1_2 * qft2_10_0_0 ] = 0
 qc652: p2_9_2 - qft2_10_0_0 - qft2_10_0_1 - qft2_10_0_2 + [
   2 pf2_10_1_2 * qft2_10_0_0 ] = 0
 qc653: qft2_10_1_0 + [ - pf2_10_2_0 * pf2_10_2_1 ] = 0
 qc654: qft2_10_1_1 + [ - pf2_10_2_0 * pf2_10_2_2 ] = 0
 qc655: qft2_10_1_2 + [ - pf2_10_2_1 * pf2_10_2_2 ] = 0
 qc656: p2_10_1 - pf2_10_2_0 - pf2_10_2_1 - pf2_10_2_2 + 2 qft2_10_1_0
   + 2 qft2_10_1_1 + 2 qft2_10_1_2 + [ - 4 pf2_10_2_2 * qft2_10_1_0 ] = 0
 qc657: p2_9_3 - qft2_10_1_0 - qft2_10_1_1 - qft2_10_1_2 + [
   2 pf2_10_2_2 * qft2_10_1_0 ] = 0
 qc658: pf2_11_1_0 + [ - p1_11_0 * f1_11_0_1_0 - p1_11_1 * f1_11_1_1_0
   - p1_11_2 * f1_11_2_1_0 - p1_11_3 * f1_11_3_1_0 - p1_11_4 * f1_11_4_1_0
   - p1_11_5 * f1_11_5_1_0 ] = 0
 qc659: pf2_11_1_1 + [ - p1_11_0 * f1_11_0_1_1 - p1_11_1 * f1_11_1_1_1
   - p1_11_2 * f1_11_2_1_1 - p1_11_3 * f1_11_3_1_1 - p1_11_4 * f1_11_4_1_1
   - p1_11_5 * f1_11_5_1_1 ] = 0
 qc660: pf2_11_1_2 + [ - p1_11_0 * f1_11_0_1_2 - p1_11_1 * f1_11_1_1_2
   - p1_11_2 * f1_11_2_1_2 - p1_11_3 * f1_11_3_1_2 - p1_11_4 * f1_11_4_1_2
   - p1_11_5 * f1_11_5_1_2 ] = 0
 qc661: pf2_11_2_0 + [ - p1_11_0 * f1_11_0_2_0 - p1_11_1 * f1_11_1_2_0
   - p1_11_2 * f1_11_2_2_0 - p1_11_3 * f1_11_3_2_0 - p1_11_4 * f1_11_4_2_0
   - p1_11_5 * f1_11_5_2_0 ] = 0
 qc662: pf2_11_2_1 + [ - p1_11_0 * f1_11_0_2_1 - p1_11_1 * f1_11_1_2_1
   - p1_11_2 * f1_11_2_2_1 - p1_11_3 * f1_11_3_2_1 - p1_11_4 * f1_11_4_2_1
   - p1_11_5 * f1_11_5_2_1 ] = 0
 qc663: pf2_11_2_2 + [ - p1_11_0 * f1_11_0_2_2 - p1_11_1 * f1_11_1_2_2
   - p1_11_2 * f1_11_2_2_2 - p1_11_3 * f1_11_3_2_2 - p1_11_4 * f1_11_4_2_2
   - p1_11_5 * f1_11_5_2_2 ] = 0
 qc664: qft2_11_0_0 + [ - pf2_11_1_0 * pf2_11_1_1 ] = 0
 qc665: qft2_11_0_1 + [ - pf2_11_1_0 * pf2_11_1_2 ] = 0
 qc666: qft2_11_0_2 + [ - pf2_11_1_1 * pf2_11_1_2 ] = 0
 qc667: p2_11_0 - pf2_11_1_0 - pf2_11_1_1 - pf2_11_1_2 + 2 qft2_11_0_0
   + 2 qft2_11_0_1 + 2 qft2_11_0_2 + [ - 4 pf2_11_1_2 * qft2_11_0_0 ] = 0
 qc668: p2_10_2 - qft2_11_0_0 - qft2_11_0_1 - qft2_11_0_2 + [
   2 pf2_11_1_2 * qft2_11_0_0 ] = 0
 qc669: qft2_11_1_0 + [ - pf2_11_2_0 * pf2_11_2_1 ] = 0
 qc670: qft2_11_1_1 + [ - pf2_11_2_0 * pf2_11_2_2 ] = 0
 qc671: qft2_11_1_2 + [ - pf2_11_2_1 * pf2_11_2_2 ] = 0
 qc672: p2_11_1 - pf2_11_2_0 - pf2_11_2_1 - pf2_11_2_2 + 2 qft2_11_1_0
   + 2 qft2_11_1_1 + 2 qft2_11_1_2 + [ - 4 pf2_11_2_2 * qft2_11_1_0 ] = 0
 qc673: p2_10_3 - qft2_11_1_0 - qft2_11_1_1 - qft2_11_1_2 + [
   2 pf2_11_2_2 * qft2_11_1_0 ] = 0
 qc674: pf2_12_1_0 + [ - p1_12_0 * f1_12_0_1_0 - p1_12_1 * f1_12_1_1_0
   - p1_12_2 * f1_12_2_1_0 - p1_12_3 * f1_12_3_1_0 - p1_12_4 * f1_12_4_1_0
   - p1_12_5 * f1_12_5_1_0 ] = 0
 qc675: pf2_12_1_1 + [ - p1_12_0 * f1_12_0_1_1 - p1_12_1 * f1_12_1_1_1
   - p1_12_2 * f1_12_2_1_1 - p1_12_3 * f1_12_3_1_1 - p1_12_4 * f1_12_4_1_1
   - p1_12_5 * f1_12_5_1_1 ] = 0
 qc676: pf2_12_1_2 + [ - p1_12_0 * f1_12_0_1_2 - p1_12_1 * f1_12_1_1_2
   - p1_12_2 * f1_12_2_1_2 - p1_12_3 * f1_12_3_1_2 - p1_12_4 * f1_12_4_1_2
   - p1_12_5 * f1_12_5_1_2 ] = 0
 qc677: pf2_12_2_0 + [ - p1_12_0 * f1_12_0_2_0 - p1_12_1 * f1_12_1_2_0
   - p1_12_2 * f1_12_2_2_0 - p1_12_3 * f1_12_3_2_0 - p1_12_4 * f1_12_4_2_0
   - p1_12_5 * f1_12_5_2_0 ] = 0
 qc678: pf2_12_2_1 + [ - p1_12_0 * f1_12_0_2_1 - p1_12_1 * f1_12_1_2_1
   - p1_12_2 * f1_12_2_2_1 - p1_12_3 * f1_12_3_2_1 - p1_12_4 * f1_12_4_2_1
   - p1_12_5 * f1_12_5_2_1 ] = 0
 qc679: pf2_12_2_2 + [ - p1_12_0 * f1_12_0_2_2 - p1_12_1 * f1_12_1_2_2
   - p1_12_2 * f1_12_2_2_2 - p1_12_3 * f1_12_3_2_2 - p1_12_4 * f1_12_4_2_2
   - p1_12_5 * f1_12_5_2_2 ] = 0
 qc680: qft2_12_0_0 + [ - pf2_12_1_0 * pf2_12_1_1 ] = 0
 qc681: qft2_12_0_1 + [ - pf2_12_1_0 * pf2_12_1_2 ] = 0
 qc682: qft2_12_0_2 + [ - pf2_12_1_1 * pf2_12_1_2 ] = 0
 qc683: p2_12_0 - pf2_12_1_0 - pf2_12_1_1 - pf2_12_1_2 + 2 qft2_12_0_0
   + 2 qft2_12_0_1 + 2 qft2_12_0_2 + [ - 4 pf2_12_1_2 * qft2_12_0_0 ] = 0
 qc684: p2_11_2 - qft2_12_0_0 - qft2_12_0_1 - qft2_12_0_2 + [
   2 pf2_12_1_2 * qft2_12_0_0 ] = 0
 qc685: qft2_12_1_0 + [ - pf2_12_2_0 * pf2_12_2_1 ] = 0
 qc686: qft2_12_1_1 + [ - pf2_12_2_0 * pf2_12_2_2 ] = 0
 qc687: qft2_12_1_2 + [ - pf2_12_2_1 * pf2_12_2_2 ] = 0
 qc688: p2_12_1 - pf2_12_2_0 - pf2_12_2_1 - pf2_12_2_2 + 2 qft2_12_1_0
   + 2 qft2_12_1_1 + 2 qft2_12_1_2 + [ - 4 pf2_12_2_2 * qft2_12_1_0 ] = 0
 qc689: p2_11_3 - qft2_12_1_0 - qft2_12_1_1 - qft2_12_1_2 + [
   2 pf2_12_2_2 * qft2_12_1_0 ] = 0
 qc690: - p2_13_0 + [ p1_13_0 * rb1_13_0_0 + p1_13_1 * rb1_13_1_0
   + p1_13_2 * rb1_13_2_0 + p1_13_3 * rb1_13_3_0 + p1_13_4 * rb1_13_4_0
   + p1_13_5 * rb1_13_5_0 + p1_13_6 * rb1_13_6_0 ] = 0
 qc691: pf2_13_1_0 + [ - p1_13_0 * f1_13_0_1_0 - p1_13_1 * f1_13_1_1_0
   - p1_13_2 * f1_13_2_1_0 - p1_13_3 * f1_13_3_1_0 - p1_13_4 * f1_13_4_1_0
   - p1_13_5 * f1_13_5_1_0 - p1_13_6 * f1_13_6_1_0 ] = 0
 qc692: pf2_13_1_1 + [ - p1_13_0 * f1_13_0_1_1 - p1_13_1 * f1_13_1_1_1
   - p1_13_2 * f1_13_2_1_1 - p1_13_3 * f1_13_3_1_1 - p1_13_4 * f1_13_4_1_1
   - p1_13_5 * f1_13_5_1_1 - p1_13_6 * f1_13_6_1_1 ] = 0
 qc693: pf2_13_1_2 + [ - p1_13_0 * f1_13_0_1_2 - p1_13_1 * f1_13_1_1_2
   - p1_13_2 * f1_13_2_1_2 - p1_13_3 * f1_13_3_1_2 - p1_13_4 * f1_13_4_1_2
   - p1_13_5 * f1_13_5_1_2 - p1_13_6 * f1_13_6_1_2 ] = 0
 qc694: pf2_13_2_0 + [ - p1_13_0 * f1_13_0_2_0 - p1_13_1 * f1_13_1_2_0
   - p1_13_2 * f1_13_2_2_0 - p1_13_3 * f1_13_3_2_0 - p1_13_4 * f1_13_4_2_0
   - p1_13_5 * f1_13_5_2_0 - p1_13_6 * f1_13_6_2_0 ] = 0
 qc695: pf2_13_2_1 + [ - p1_13_0 * f1_13_0_2_1 - p1_13_1 * f1_13_1_2_1
   - p1_13_2 * f1_13_2_2_1 - p1_13_3 * f1_13_3_2_1 - p1_13_4 * f1_13_4_2_1
   - p1_13_5 * f1_13_5_2_1 - p1_13_6 * f1_13_6_2_1 ] = 0
 qc696: pf2_13_2_2 + [ - p1_13_0 * f1_13_0_2_2 - p1_13_1 * f1_13_1_2_2
   - p1_13_2 * f1_13_2_2_2 - p1_13_3 * f1_13_3_2_2 - p1_13_4 * f1_13_4_2_2
   - p1_13_5 * f1_13_5_2_2 - p1_13_6 * f1_13_6_2_2 ] = 0
 qc697: qft2_13_0_0 + [ - pf2_13_1_0 * pf2_13_1_1 ] = 0
 qc698: qft2_13_0_1 + [ - pf2_13_1_0 * pf2_13_1_2 ] = 0
 qc699: qft2_13_0_2 + [ - pf2_13_1_1 * pf2_13_1_2 ] = 0
 qc700: p2_13_1 - pf2_13_1_0 - pf2_13_1_1 - pf2_13_1_2 + 2 qft2_13_0_0
   + 2 qft2_13_0_1 + 2 qft2_13_0_2 + [ - 4 pf2_13_1_2 * qft2_13_0_0 ] = 0
 qc701: p2_12_2 - qft2_13_0_0 - qft2_13_0_1 - qft2_13_0_2 + [
   2 pf2_13_1_2 * qft2_13_0_0 ] = 0
 qc702: qft2_13_1_0 + [ - pf2_13_2_0 * pf2_13_2_1 ] = 0
 qc703: qft2_13_1_1 + [ - pf2_13_2_0 * pf2_13_2_2 ] = 0
 qc704: qft2_13_1_2 + [ - pf2_13_2_1 * pf2_13_2_2 ] = 0
 qc705: p2_13_2 - pf2_13_2_0 - pf2_13_2_1 - pf2_13_2_2 + 2 qft2_13_1_0
   + 2 qft2_13_1_1 + 2 qft2_13_1_2 + [ - 4 pf2_13_2_2 * qft2_13_1_0 ] = 0
 qc706: p2_12_3 - qft2_13_1_0 - qft2_13_1_1 - qft2_13_1_2 + [
   2 pf2_13_2_2 * qft2_13_1_0 ] = 0
 qc707: pf2_14_1_0 + [ - p1_14_0 * f1_14_0_1_0 - p1_14_1 * f1_14_1_1_0
   - p1_14_2 * f1_14_2_1_0 - p1_14_3 * f1_14_3_1_0 - p1_14_4 * f1_14_4_1_0
   - p1_14_5 * f1_14_5_1_0 - p1_14_6 * f1_14_6_1_0 - p1_14_7 * f1_14_7_1_0
   - p1_14_8 * f1_14_8_1_0 ] = 0
 qc708: pf2_14_1_1 + [ - p1_14_0 * f1_14_0_1_1 - p1_14_1 * f1_14_1_1_1
   - p1_14_2 * f1_14_2_1_1 - p1_14_3 * f1_14_3_1_1 - p1_14_4 * f1_14_4_1_1
   - p1_14_5 * f1_14_5_1_1 - p1_14_6 * f1_14_6_1_1 - p1_14_7 * f1_14_7_1_1
   - p1_14_8 * f1_14_8_1_1 ] = 0
 qc709: pf2_14_1_2 + [ - p1_14_0 * f1_14_0_1_2 - p1_14_1 * f1_14_1_1_2
   - p1_14_2 * f1_14_2_1_2 - p1_14_3 * f1_14_3_1_2 - p1_14_4 * f1_14_4_1_2
   - p1_14_5 * f1_14_5_1_2 - p1_14_6 * f1_14_6_1_2 - p1_14_7 * f1_14_7_1_2
   - p1_14_8 * f1_14_8_1_2 ] = 0
 qc710: pf2_14_2_0 + [ - p1_14_0 * f1_14_0_2_0 - p1_14_1 * f1_14_1_2_0
   - p1_14_2 * f1_14_2_2_0 - p1_14_3 * f1_14_3_2_0 - p1_14_4 * f1_14_4_2_0
   - p1_14_5 * f1_14_5_2_0 - p1_14_6 * f1_14_6_2_0 - p1_14_7 * f1_14_7_2_0
   - p1_14_8 * f1_14_8_2_0 ] = 0
 qc711: pf2_14_2_1 + [ - p1_14_0 * f1_14_0_2_1 - p1_14_1 * f1_14_1_2_1
   - p1_14_2 * f1_14_2_2_1 - p1_14_3 * f1_14_3_2_1 - p1_14_4 * f1_14_4_2_1
   - p1_14_5 * f1_14_5_2_1 - p1_14_6 * f1_14_6_2_1 - p1_14_7 * f1_14_7_2_1
   - p1_14_8 * f1_14_8_2_1 ] = 0
 qc712: pf2_14_2_2 + [ - p1_14_0 * f1_14_0_2_2 - p1_14_1 * f1_14_1_2_2
   - p1_14_2 * f1_14_2_2_2 - p1_14_3 * f1_14_3_2_2 - p1_14_4 * f1_14_4_2_2
   - p1_14_5 * f1_14_5_2_2 - p1_14_6 * f1_14_6_2_2 - p1_14_7 * f1_14_7_2_2
   - p1_14_8 * f1_14_8_2_2 ] = 0
 qc713: pf2_14_3_0 + [ - p1_14_0 * f1_14_0_3_0 - p1_14_1 * f1_14_1_3_0
   - p1_14_2 * f1_14_2_3_0 - p1_14_3 * f1_14_3_3_0 - p1_14_4 * f1_14_4_3_0
   - p1_14_5 * f1_14_5_3_0 - p1_14_6 * f1_14_6_3_0 - p1_14_7 * f1_14_7_3_0
   - p1_14_8 * f1_14_8_3_0 ] = 0
 qc714: pf2_14_3_1 + [ - p1_14_0 * f1_14_0_3_1 - p1_14_1 * f1_14_1_3_1
   - p1_14_2 * f1_14_2_3_1 - p1_14_3 * f1_14_3_3_1 - p1_14_4 * f1_14_4_3_1
   - p1_14_5 * f1_14_5_3_1 - p1_14_6 * f1_14_6_3_1 - p1_14_7 * f1_14_7_3_1
   - p1_14_8 * f1_14_8_3_1 ] = 0
 qc715: pf2_14_3_2 + [ - p1_14_0 * f1_14_0_3_2 - p1_14_1 * f1_14_1_3_2
   - p1_14_2 * f1_14_2_3_2 - p1_14_3 * f1_14_3_3_2 - p1_14_4 * f1_14_4_3_2
   - p1_14_5 * f1_14_5_3_2 - p1_14_6 * f1_14_6_3_2 - p1_14_7 * f1_14_7_3_2
   - p1_14_8 * f1_14_8_3_2 ] = 0
 qc716: qft2_14_0_0 + [ - pf2_14_1_0 * pf2_14_1_1 ] = 0
 qc717: qft2_14_0_1 + [ - pf2_14_1_0 * pf2_14_1_2 ] = 0
 qc718: qft2_14_0_2 + [ - pf2_14_1_1 * pf2_14_1_2 ] = 0
 qc719: p2_14_0 - pf2_14_1_0 - pf2_14_1_1 - pf2_14_1_2 + 2 qft2_14_0_0
   + 2 qft2_14_0_1 + 2 qft2_14_0_2 + [ - 4 pf2_14_1_2 * qft2_14_0_0 ] = 0
 qc720: p2_13_3 - qft2_14_0_0 - qft2_14_0_1 - qft2_14_0_2 + [
   2 pf2_14_1_2 * qft2_14_0_0 ] = 0
 qc721: qft2_14_1_0 + [ - pf2_14_2_0 * pf2_14_2_1 ] = 0
 qc722: qft2_14_1_1 + [ - pf2_14_2_0 * pf2_14_2_2 ] = 0
 qc723: qft2_14_1_2 + [ - pf2_14_2_1 * pf2_14_2_2 ] = 0
 qc724: p2_14_1 - pf2_14_2_0 - pf2_14_2_1 - pf2_14_2_2 + 2 qft2_14_1_0
   + 2 qft2_14_1_1 + 2 qft2_14_1_2 + [ - 4 pf2_14_2_2 * qft2_14_1_0 ] = 0
 qc725: p2_13_4 - qft2_14_1_0 - qft2_14_1_1 - qft2_14_1_2 + [
   2 pf2_14_2_2 * qft2_14_1_0 ] = 0
 qc726: qft2_14_2_0 + [ - pf2_14_3_0 * pf2_14_3_1 ] = 0
 qc727: qft2_14_2_1 + [ - pf2_14_3_0 * pf2_14_3_2 ] = 0
 qc728: qft2_14_2_2 + [ - pf2_14_3_1 * pf2_14_3_2 ] = 0
 qc729: p2_14_2 - pf2_14_3_0 - pf2_14_3_1 - pf2_14_3_2 + 2 qft2_14_2_0
   + 2 qft2_14_2_1 + 2 qft2_14_2_2 + [ - 4 pf2_14_3_2 * qft2_14_2_0 ] = 0
 qc730: p2_13_5 - qft2_14_2_0 - qft2_14_2_1 - qft2_14_2_2 + [
   2 pf2_14_3_2 * qft2_14_2_0 ] = 0
 qc731: - p2_15_0 + [ p1_15_0 * rb1_15_0_0 + p1_15_1 * rb1_15_1_0
   + p1_15_2 * rb1_15_2_0 + p1_15_3 * rb1_15_3_0 ] = 0
 qc732: pf2_15_1_0 + [ - p1_15_0 * f1_15_0_1_0 - p1_15_1 * f1_15_1_1_0
   - p1_15_2 * f1_15_2_1_0 - p1_15_3 * f1_15_3_1_0 ] = 0
 qc733: pf2_15_1_1 + [ - p1_15_0 * f1_15_0_1_1 - p1_15_1 * f1_15_1_1_1
   - p1_15_2 * f1_15_2_1_1 - p1_15_3 * f1_15_3_1_1 ] = 0
 qc734: pf2_15_1_2 + [ - p1_15_0 * f1_15_0_1_2 - p1_15_1 * f1_15_1_1_2
   - p1_15_2 * f1_15_2_1_2 - p1_15_3 * f1_15_3_1_2 ] = 0
 qc735: qft2_15_0_0 + [ - pf2_15_1_0 * pf2_15_1_1 ] = 0
 qc736: qft2_15_0_1 + [ - pf2_15_1_0 * pf2_15_1_2 ] = 0
 qc737: qft2_15_0_2 + [ - pf2_15_1_1 * pf2_15_1_2 ] = 0
 qc738: p2_15_1 - pf2_15_1_0 - pf2_15_1_1 - pf2_15_1_2 + 2 qft2_15_0_0
   + 2 qft2_15_0_1 + 2 qft2_15_0_2 + [ - 4 pf2_15_1_2 * qft2_15_0_0 ] = 0
 qc739: p2_14_3 - qft2_15_0_0 - qft2_15_0_1 - qft2_15_0_2 + [
   2 pf2_15_1_2 * qft2_15_0_0 ] = 0
 qc740: - p2_16_0 + [ p1_16_0 * rb1_16_0_0 + p1_16_1 * rb1_16_1_0
   + p1_16_2 * rb1_16_2_0 + p1_16_3 * rb1_16_3_0 + p1_16_4 * rb1_16_4_0
   + p1_16_5 * rb1_16_5_0 + p1_16_6 * rb1_16_6_0 ] = 0
 qc741: - p2_16_1 + [ p1_16_0 * rb1_16_0_1 + p1_16_1 * rb1_16_1_1
   + p1_16_2 * rb1_16_2_1 + p1_16_3 * rb1_16_3_1 + p1_16_4 * rb1_16_4_1
   + p1_16_5 * rb1_16_5_1 + p1_16_6 * rb1_16_6_1 ] = 0
 qc742: - p2_16_2 + [ p1_16_0 * rb1_16_0_2 + p1_16_1 * rb1_16_1_2
   + p1_16_2 * rb1_16_2_2 + p1_16_3 * rb1_16_3_2 + p1_16_4 * rb1_16_4_2
   + p1_16_5 * rb1_16_5_2 + p1_16_6 * rb1_16_6_2 ] = 0
 qc743: - p2_16_3 + [ p1_16_0 * rb1_16_0_3 + p1_16_1 * rb1_16_1_3
   + p1_16_2 * rb1_16_2_3 + p1_16_3 * rb1_16_3_3 + p1_16_4 * rb1_16_4_3
   + p1_16_5 * rb1_16_5_3 + p1_16_6 * rb1_16_6_3 ] = 0
 qc744: p3a2_16_1_0 + [ - p1_16_0 * a3c1_16_0_1_0 - p1_16_1 * a3c1_16_1_1_0
   - p1_16_2 * a3c1_16_2_1_0 - p1_16_3 * a3c1_16_3_1_0
   - p1_16_4 * a3c1_16_4_1_0 - p1_16_5 * a3c1_16_5_1_0
   - p1_16_6 * a3c1_16_6_1_0 ] = 0
 qc745: p3a2_16_1_1 + [ - p1_16_0 * a3c1_16_0_1_1 - p1_16_1 * a3c1_16_1_1_1
   - p1_16_2 * a3c1_16_2_1_1 - p1_16_3 * a3c1_16_3_1_1
   - p1_16_4 * a3c1_16_4_1_1 - p1_16_5 * a3c1_16_5_1_1
   - p1_16_6 * a3c1_16_6_1_1 ] = 0
 qc746: p3a2_16_1_2 + [ - p1_16_0 * a3c1_16_0_1_2 - p1_16_1 * a3c1_16_1_1_2
   - p1_16_2 * a3c1_16_2_1_2 - p1_16_3 * a3c1_16_3_1_2
   - p1_16_4 * a3c1_16_4_1_2 - p1_16_5 * a3c1_16_5_1_2
   - p1_16_6 * a3c1_16_6_1_2 ] = 0
 qc747: q3t2_16_0_0 + [ - p3a2_16_1_0 * p3a2_16_1_1 ] = 0
 qc748: p2_16_4 - p3a2_16_1_0 - p3a2_16_1_1 + q3t2_16_0_0 + [ ] = 0
 qc749: p2_16_5 - p3a2_16_1_2 - q3t2_16_0_0 + [ p3a2_16_1_2 * q3t2_16_0_0 ]
   = 0
 qc750: med3a2_16_0 + [ - p3a2_16_1_2 * q3t2_16_0_0 ] = 0
 qc751: - p2_17_0 + [ p1_17_0 * rb1_17_0_0 + p1_17_1 * rb1_17_1_0
   + p1_17_2 * rb1_17_2_0 + p1_17_3 * rb1_17_3_0 + p1_17_4 * rb1_17_4_0
   + p1_17_5 * rb1_17_5_0 + p1_17_6 * rb1_17_6_0 + p1_17_7 * rb1_17_7_0
   + p1_17_8 * rb1_17_8_0 ] = 0
 qc752: p4a2_17_1_0 + [ - p1_17_0 * a4c1_17_0_1_0 - p1_17_1 * a4c1_17_1_1_0
   - p1_17_2 * a4c1_17_2_1_0 - p1_17_3 * a4c1_17_3_1_0
   - p1_17_4 * a4c1_17_4_1_0 - p1_17_5 * a4c1_17_5_1_0
   - p1_17_6 * a4c1_17_6_1_0 - p1_17_7 * a4c1_17_7_1_0
   - p1_17_8 * a4c1_17_8_1_0 ] = 0
 qc753: p4a2_17_1_1 + [ - p1_17_0 * a4c1_17_0_1_1 - p1_17_1 * a4c1_17_1_1_1
   - p1_17_2 * a4c1_17_2_1_1 - p1_17_3 * a4c1_17_3_1_1
   - p1_17_4 * a4c1_17_4_1_1 - p1_17_5 * a4c1_17_5_1_1
   - p1_17_6 * a4c1_17_6_1_1 - p1_17_7 * a4c1_17_7_1_1
   - p1_17_8 * a4c1_17_8_1_1 ] = 0
 qc754: p4a2_17_1_2 + [ - p1_17_0 * a4c1_17_0_1_2 - p1_17_1 * a4c1_17_1_1_2
   - p1_17_2 * a4c1_17_2_1_2 - p1_17_3 * a4c1_17_3_1_2
   - p1_17_4 * a4c1_17_4_1_2 - p1_17_5 * a4c1_17_5_1_2
   - p1_17_6 * a4c1_17_6_1_2 - p1_17_7 * a4c1_17_7_1_2
   - p1_17_8 * a4c1_17_8_1_2 ] = 0
 qc755: p4a2_17_1_3 + [ - p1_17_0 * a4c1_17_0_1_3 - p1_17_1 * a4c1_17_1_1_3
   - p1_17_2 * a4c1_17_2_1_3 - p1_17_3 * a4c1_17_3_1_3
   - p1_17_4 * a4c1_17_4_1_3 - p1_17_5 * a4c1_17_5_1_3
   - p1_17_6 * a4c1_17_6_1_3 - p1_17_7 * a4c1_17_7_1_3
   - p1_17_8 * a4c1_17_8_1_3 ] = 0
 qc756: p4a2_17_2_0 + [ - p1_17_0 * a4c1_17_0_2_0 - p1_17_1 * a4c1_17_1_2_0
   - p1_17_2 * a4c1_17_2_2_0 - p1_17_3 * a4c1_17_3_2_0
   - p1_17_4 * a4c1_17_4_2_0 - p1_17_5 * a4c1_17_5_2_0
   - p1_17_6 * a4c1_17_6_2_0 - p1_17_7 * a4c1_17_7_2_0
   - p1_17_8 * a4c1_17_8_2_0 ] = 0
 qc757: p4a2_17_2_1 + [ - p1_17_0 * a4c1_17_0_2_1 - p1_17_1 * a4c1_17_1_2_1
   - p1_17_2 * a4c1_17_2_2_1 - p1_17_3 * a4c1_17_3_2_1
   - p1_17_4 * a4c1_17_4_2_1 - p1_17_5 * a4c1_17_5_2_1
   - p1_17_6 * a4c1_17_6_2_1 - p1_17_7 * a4c1_17_7_2_1
   - p1_17_8 * a4c1_17_8_2_1 ] = 0
 qc758: p4a2_17_2_2 + [ - p1_17_0 * a4c1_17_0_2_2 - p1_17_1 * a4c1_17_1_2_2
   - p1_17_2 * a4c1_17_2_2_2 - p1_17_3 * a4c1_17_3_2_2
   - p1_17_4 * a4c1_17_4_2_2 - p1_17_5 * a4c1_17_5_2_2
   - p1_17_6 * a4c1_17_6_2_2 - p1_17_7 * a4c1_17_7_2_2
   - p1_17_8 * a4c1_17_8_2_2 ] = 0
 qc759: p4a2_17_2_3 + [ - p1_17_0 * a4c1_17_0_2_3 - p1_17_1 * a4c1_17_1_2_3
   - p1_17_2 * a4c1_17_2_2_3 - p1_17_3 * a4c1_17_3_2_3
   - p1_17_4 * a4c1_17_4_2_3 - p1_17_5 * a4c1_17_5_2_3
   - p1_17_6 * a4c1_17_6_2_3 - p1_17_7 * a4c1_17_7_2_3
   - p1_17_8 * a4c1_17_8_2_3 ] = 0
 qc760: q4t2_17_0_0 + [ - p4a2_17_1_2 * p4a2_17_1_3 ] = 0
 qc761: q4t2_17_0_1 + [ - p4a2_17_1_0 * p4a2_17_1_3 ] = 0
 qc762: q4t2_17_0_2 + [ - p4a2_17_1_0 * p4a2_17_1_1 ] = 0
 qc763: q4t2_17_0_3 + [ - p4a2_17_1_1 * p4a2_17_1_3 ] = 0
 qc764: q4t2_17_0_4 + [ - p4a2_17_1_1 * p4a2_17_1_2 ] = 0
 qc765: p2_17_1 - p4a2_17_1_0 - p4a2_17_1_1 - q4t2_17_0_0 - 2 q4t2_17_0_1
   - q4t2_17_0_2 + [ p4a2_17_1_0 * q4t2_17_0_0 + p4a2_17_1_1 * q4t2_17_0_0
   + 2 p4a2_17_1_3 * q4t2_17_0_2 - q4t2_17_0_1 * q4t2_17_0_4 ] = 0
 qc766: p2_17_2 - p4a2_17_1_2 - p4a2_17_1_3 + q4t2_17_0_0 - q4t2_17_0_2 + [
   p4a2_17_1_2 * q4t2_17_0_2 + p4a2_17_1_3 * q4t2_17_0_2
   - q4t2_17_0_0 * q4t2_17_0_2 ] = 0
 qc767: med4a2_17_0 + [ - p4a2_17_1_0 * q4t2_17_0_3
   - p4a2_17_1_2 * q4t2_17_0_2 - p4a2_17_1_2 * q4t2_17_0_3
   - p4a2_17_1_3 * q4t2_17_0_2 + 2 q4t2_17_0_0 * q4t2_17_0_2 ] = 0
 qc768: q4t2_17_1_0 + [ - p4a2_17_2_2 * p4a2_17_2_3 ] = 0
 qc769: q4t2_17_1_1 + [ - p4a2_17_2_0 * p4a2_17_2_3 ] = 0
 qc770: q4t2_17_1_2 + [ - p4a2_17_2_0 * p4a2_17_2_1 ] = 0
 qc771: q4t2_17_1_3 + [ - p4a2_17_2_1 * p4a2_17_2_3 ] = 0
 qc772: q4t2_17_1_4 + [ - p4a2_17_2_1 * p4a2_17_2_2 ] = 0
 qc773: p2_17_3 - p4a2_17_2_0 - p4a2_17_2_1 - q4t2_17_1_0 - 2 q4t2_17_1_1
   - q4t2_17_1_2 + [ p4a2_17_2_0 * q4t2_17_1_0 + p4a2_17_2_1 * q4t2_17_1_0
   + 2 p4a2_17_2_3 * q4t2_17_1_2 - q4t2_17_1_1 * q4t2_17_1_4 ] = 0
 qc774: p2_17_4 - p4a2_17_2_2 - p4a2_17_2_3 + q4t2_17_1_0 - q4t2_17_1_2 + [
   p4a2_17_2_2 * q4t2_17_1_2 + p4a2_17_2_3 * q4t2_17_1_2
   - q4t2_17_1_0 * q4t2_17_1_2 ] = 0
 qc775: med4a2_17_1 + [ - p4a2_17_2_0 * q4t2_17_1_3
   - p4a2_17_2_2 * q4t2_17_1_2 - p4a2_17_2_2 * q4t2_17_1_3
   - p4a2_17_2_3 * q4t2_17_1_2 + 2 q4t2_17_1_0 * q4t2_17_1_2 ] = 0
 qc776: p4a2_18_1_0 + [ - p1_18_0 * a4c1_18_0_1_0 - p1_18_1 * a4c1_18_1_1_0
   - p1_18_2 * a4c1_18_2_1_0 - p1_18_3 * a4c1_18_3_1_0
   - p1_18_4 * a4c1_18_4_1_0 - p1_18_5 * a4c1_18_5_1_0
   - p1_18_6 * a4c1_18_6_1_0 - p1_18_7 * a4c1_18_7_1_0 ] = 0
 qc777: p4a2_18_1_1 + [ - p1_18_0 * a4c1_18_0_1_1 - p1_18_1 * a4c1_18_1_1_1
   - p1_18_2 * a4c1_18_2_1_1 - p1_18_3 * a4c1_18_3_1_1
   - p1_18_4 * a4c1_18_4_1_1 - p1_18_5 * a4c1_18_5_1_1
   - p1_18_6 * a4c1_18_6_1_1 - p1_18_7 * a4c1_18_7_1_1 ] = 0
 qc778: p4a2_18_1_2 + [ - p1_18_0 * a4c1_18_0_1_2 - p1_18_1 * a4c1_18_1_1_2
   - p1_18_2 * a4c1_18_2_1_2 - p1_18_3 * a4c1_18_3_1_2
   - p1_18_4 * a4c1_18_4_1_2 - p1_18_5 * a4c1_18_5_1_2
   - p1_18_6 * a4c1_18_6_1_2 - p1_18_7 * a4c1_18_7_1_2 ] = 0
 qc779: p4a2_18_1_3 + [ - p1_18_0 * a4c1_18_0_1_3 - p1_18_1 * a4c1_18_1_1_3
   - p1_18_2 * a4c1_18_2_1_3 - p1_18_3 * a4c1_18_3_1_3
   - p1_18_4 * a4c1_18_4_1_3 - p1_18_5 * a4c1_18_5_1_3
   - p1_18_6 * a4c1_18_6_1_3 - p1_18_7 * a4c1_18_7_1_3 ] = 0
 qc780: p4a2_18_2_0 + [ - p1_18_0 * a4c1_18_0_2_0 - p1_18_1 * a4c1_18_1_2_0
   - p1_18_2 * a4c1_18_2_2_0 - p1_18_3 * a4c1_18_3_2_0
   - p1_18_4 * a4c1_18_4_2_0 - p1_18_5 * a4c1_18_5_2_0
   - p1_18_6 * a4c1_18_6_2_0 - p1_18_7 * a4c1_18_7_2_0 ] = 0
 qc781: p4a2_18_2_1 + [ - p1_18_0 * a4c1_18_0_2_1 - p1_18_1 * a4c1_18_1_2_1
   - p1_18_2 * a4c1_18_2_2_1 - p1_18_3 * a4c1_18_3_2_1
   - p1_18_4 * a4c1_18_4_2_1 - p1_18_5 * a4c1_18_5_2_1
   - p1_18_6 * a4c1_18_6_2_1 - p1_18_7 * a4c1_18_7_2_1 ] = 0
 qc782: p4a2_18_2_2 + [ - p1_18_0 * a4c1_18_0_2_2 - p1_18_1 * a4c1_18_1_2_2
   - p1_18_2 * a4c1_18_2_2_2 - p1_18_3 * a4c1_18_3_2_2
   - p1_18_4 * a4c1_18_4_2_2 - p1_18_5 * a4c1_18_5_2_2
   - p1_18_6 * a4c1_18_6_2_2 - p1_18_7 * a4c1_18_7_2_2 ] = 0
 qc783: p4a2_18_2_3 + [ - p1_18_0 * a4c1_18_0_2_3 - p1_18_1 * a4c1_18_1_2_3
   - p1_18_2 * a4c1_18_2_2_3 - p1_18_3 * a4c1_18_3_2_3
   - p1_18_4 * a4c1_18_4_2_3 - p1_18_5 * a4c1_18_5_2_3
   - p1_18_6 * a4c1_18_6_2_3 - p1_18_7 * a4c1_18_7_2_3 ] = 0
 qc784: q4t2_18_0_0 + [ - p4a2_18_1_2 * p4a2_18_1_3 ] = 0
 qc785: q4t2_18_0_1 + [ - p4a2_18_1_0 * p4a2_18_1_3 ] = 0
 qc786: q4t2_18_0_2 + [ - p4a2_18_1_0 * p4a2_18_1_1 ] = 0
 qc787: q4t2_18_0_3 + [ - p4a2_18_1_1 * p4a2_18_1_3 ] = 0
 qc788: q4t2_18_0_4 + [ - p4a2_18_1_1 * p4a2_18_1_2 ] = 0
 qc789: p2_18_0 - p4a2_18_1_0 - p4a2_18_1_1 - q4t2_18_0_0 - 2 q4t2_18_0_1
   - q4t2_18_0_2 + [ p4a2_18_1_0 * q4t2_18_0_0 + p4a2_18_1_1 * q4t2_18_0_0
   + 2 p4a2_18_1_3 * q4t2_18_0_2 - q4t2_18_0_1 * q4t2_18_0_4 ] = 0
 qc790: p2_18_1 - p4a2_18_1_2 - p4a2_18_1_3 + q4t2_18_0_0 - q4t2_18_0_2 + [
   p4a2_18_1_2 * q4t2_18_0_2 + p4a2_18_1_3 * q4t2_18_0_2
   - q4t2_18_0_0 * q4t2_18_0_2 ] = 0
 qc791: med4a2_18_0 + [ - p4a2_18_1_0 * q4t2_18_0_3
   - p4a2_18_1_2 * q4t2_18_0_2 - p4a2_18_1_2 * q4t2_18_0_3
   - p4a2_18_1_3 * q4t2_18_0_2 + 2 q4t2_18_0_0 * q4t2_18_0_2 ] = 0
 qc792: q4t2_18_1_0 + [ - p4a2_18_2_2 * p4a2_18_2_3 ] = 0
 qc793: q4t2_18_1_1 + [ - p4a2_18_2_0 * p4a2_18_2_3 ] = 0
 qc794: q4t2_18_1_2 + [ - p4a2_18_2_0 * p4a2_18_2_1 ] = 0
 qc795: q4t2_18_1_3 + [ - p4a2_18_2_1 * p4a2_18_2_3 ] = 0
 qc796: q4t2_18_1_4 + [ - p4a2_18_2_1 * p4a2_18_2_2 ] = 0
 qc797: p2_18_2 - p4a2_18_2_0 - p4a2_18_2_1 - q4t2_18_1_0 - 2 q4t2_18_1_1
   - q4t2_18_1_2 + [ p4a2_18_2_0 * q4t2_18_1_0 + p4a2_18_2_1 * q4t2_18_1_0
   + 2 p4a2_18_2_3 * q4t2_18_1_2 - q4t2_18_1_1 * q4t2_18_1_4 ] = 0
 qc798: p2_18_3 - p4a2_18_2_2 - p4a2_18_2_3 + q4t2_18_1_0 - q4t2_18_1_2 + [
   p4a2_18_2_2 * q4t2_18_1_2 + p4a2_18_2_3 * q4t2_18_1_2
   - q4t2_18_1_0 * q4t2_18_1_2 ] = 0
 qc799: med4a2_18_1 + [ - p4a2_18_2_0 * q4t2_18_1_3
   - p4a2_18_2_2 * q4t2_18_1_2 - p4a2_18_2_2 * q4t2_18_1_3
   - p4a2_18_2_3 * q4t2_18_1_2 + 2 q4t2_18_1_0 * q4t2_18_1_2 ] = 0
 qc800: - p2_19_0 + [ p1_19_0 * rb1_19_0_0 + p1_19_1 * rb1_19_1_0
   + p1_19_2 * rb1_19_2_0 + p1_19_3 * rb1_19_3_0 + p1_19_4 * rb1_19_4_0
   + p1_19_5 * rb1_19_5_0 + p1_19_6 * rb1_19_6_0 + p1_19_7 * rb1_19_7_0 ]
   = 0
 qc801: - p2_19_1 + [ p1_19_0 * rb1_19_0_1 + p1_19_1 * rb1_19_1_1
   + p1_19_2 * rb1_19_2_1 + p1_19_3 * rb1_19_3_1 + p1_19_4 * rb1_19_4_1
   + p1_19_5 * rb1_19_5_1 + p1_19_6 * rb1_19_6_1 + p1_19_7 * rb1_19_7_1 ]
   = 0
 qc802: - p2_19_2 + [ p1_19_0 * rb1_19_0_2 + p1_19_1 * rb1_19_1_2
   + p1_19_2 * rb1_19_2_2 + p1_19_3 * rb1_19_3_2 + p1_19_4 * rb1_19_4_2
   + p1_19_5 * rb1_19_5_2 + p1_19_6 * rb1_19_6_2 + p1_19_7 * rb1_19_7_2 ]
   = 0
 qc803: - p2_19_3 + [ p1_19_0 * rb1_19_0_3 + p1_19_1 * rb1_19_1_3
   + p1_19_2 * rb1_19_2_3 + p1_19_3 * rb1_19_3_3 + p1_19_4 * rb1_19_4_3
   + p1_19_5 * rb1_19_5_3 + p1_19_6 * rb1_19_6_3 + p1_19_7 * rb1_19_7_3 ]
   = 0
 qc804: - p2_19_4 + [ p1_19_0 * rb1_19_0_4 + p1_19_1 * rb1_19_1_4
   + p1_19_2 * rb1_19_2_4 + p1_19_3 * rb1_19_3_4 + p1_19_4 * rb1_19_4_4
   + p1_19_5 * rb1_19_5_4 + p1_19_6 * rb1_19_6_4 + p1_19_7 * rb1_19_7_4 ]
   = 0
 qc805: pf2_19_1_0 + [ - p1_19_0 * f1_19_0_1_0 - p1_19_1 * f1_19_1_1_0
   - p1_19_2 * f1_19_2_1_0 - p1_19_3 * f1_19_3_1_0 - p1_19_4 * f1_19_4_1_0
   - p1_19_5 * f1_19_5_1_0 - p1_19_6 * f1_19_6_1_0 - p1_19_7 * f1_19_7_1_0
   ] = 0
 qc806: pf2_19_1_1 + [ - p1_19_0 * f1_19_0_1_1 - p1_19_1 * f1_19_1_1_1
   - p1_19_2 * f1_19_2_1_1 - p1_19_3 * f1_19_3_1_1 - p1_19_4 * f1_19_4_1_1
   - p1_19_5 * f1_19_5_1_1 - p1_19_6 * f1_19_6_1_1 - p1_19_7 * f1_19_7_1_1
   ] = 0
 qc807: pf2_19_1_2 + [ - p1_19_0 * f1_19_0_1_2 - p1_19_1 * f1_19_1_1_2
   - p1_19_2 * f1_19_2_1_2 - p1_19_3 * f1_19_3_1_2 - p1_19_4 * f1_19_4_1_2
   - p1_19_5 * f1_19_5_1_2 - p1_19_6 * f1_19_6_1_2 - p1_19_7 * f1_19_7_1_2
   ] = 0
 qc808: qft2_19_0_0 + [ - pf2_19_1_0 * pf2_19_1_1 ] = 0
 qc809: qft2_19_0_1 + [ - pf2_19_1_0 * pf2_19_1_2 ] = 0
 qc810: qft2_19_0_2 + [ - pf2_19_1_1 * pf2_19_1_2 ] = 0
 qc811: p2_19_5 - pf2_19_1_0 - pf2_19_1_1 - pf2_19_1_2 + 2 qft2_19_0_0
   + 2 qft2_19_0_1 + 2 qft2_19_0_2 + [ - 4 pf2_19_1_2 * qft2_19_0_0 ] = 0
 qc812: p2_18_4 - qft2_19_0_0 - qft2_19_0_1 - qft2_19_0_2 + [
   2 pf2_19_1_2 * qft2_19_0_0 ] = 0
 qc813: - p2_20_0 + [ p1_20_0 * rb1_20_0_0 + p1_20_1 * rb1_20_1_0
   + p1_20_2 * rb1_20_2_0 + p1_20_3 * rb1_20_3_0 + p1_20_4 * rb1_20_4_0
   + p1_20_5 * rb1_20_5_0 + p1_20_6 * rb1_20_6_0 + p1_20_7 * rb1_20_7_0
   + p1_20_8 * rb1_20_8_0 ] = 0
 qc814: - p2_20_1 + [ p1_20_0 * rb1_20_0_1 + p1_20_1 * rb1_20_1_1
   + p1_20_2 * rb1_20_2_1 + p1_20_3 * rb1_20_3_1 + p1_20_4 * rb1_20_4_1
   + p1_20_5 * rb1_20_5_1 + p1_20_6 * rb1_20_6_1 + p1_20_7 * rb1_20_7_1
   + p1_20_8 * rb1_20_8_1 ] = 0
 qc815: - p2_20_2 + [ p1_20_0 * rb1_20_0_2 + p1_20_1 * rb1_20_1_2
   + p1_20_2 * rb1_20_2_2 + p1_20_3 * rb1_20_3_2 + p1_20_4 * rb1_20_4_2
   + p1_20_5 * rb1_20_5_2 + p1_20_6 * rb1_20_6_2 + p1_20_7 * rb1_20_7_2
   + p1_20_8 * rb1_20_8_2 ] = 0
 qc816: p3a2_20_1_0 + [ - p1_20_0 * a3c1_20_0_1_0 - p1_20_1 * a3c1_20_1_1_0
   - p1_20_2 * a3c1_20_2_1_0 - p1_20_3 * a3c1_20_3_1_0
   - p1_20_4 * a3c1_20_4_1_0 - p1_20_5 * a3c1_20_5_1_0
   - p1_20_6 * a3c1_20_6_1_0 - p1_20_7 * a3c1_20_7_1_0
   - p1_20_8 * a3c1_20_8_1_0 ] = 0
 qc817: p3a2_20_1_1 + [ - p1_20_0 * a3c1_20_0_1_1 - p1_20_1 * a3c1_20_1_1_1
   - p1_20_2 * a3c1_20_2_1_1 - p1_20_3 * a3c1_20_3_1_1
   - p1_20_4 * a3c1_20_4_1_1 - p1_20_5 * a3c1_20_5_1_1
   - p1_20_6 * a3c1_20_6_1_1 - p1_20_7 * a3c1_20_7_1_1
   - p1_20_8 * a3c1_20_8_1_1 ] = 0
 qc818: p3a2_20_1_2 + [ - p1_20_0 * a3c1_20_0_1_2 - p1_20_1 * a3c1_20_1_1_2
   - p1_20_2 * a3c1_20_2_1_2 - p1_20_3 * a3c1_20_3_1_2
   - p1_20_4 * a3c1_20_4_1_2 - p1_20_5 * a3c1_20_5_1_2
   - p1_20_6 * a3c1_20_6_1_2 - p1_20_7 * a3c1_20_7_1_2
   - p1_20_8 * a3c1_20_8_1_2 ] = 0
 qc819: p3a2_20_2_0 + [ - p1_20_0 * a3c1_20_0_2_0 - p1_20_1 * a3c1_20_1_2_0
   - p1_20_2 * a3c1_20_2_2_0 - p1_20_3 * a3c1_20_3_2_0
   - p1_20_4 * a3c1_20_4_2_0 - p1_20_5 * a3c1_20_5_2_0
   - p1_20_6 * a3c1_20_6_2_0 - p1_20_7 * a3c1_20_7_2_0
   - p1_20_8 * a3c1_20_8_2_0 ] = 0
 qc820: p3a2_20_2_1 + [ - p1_20_0 * a3c1_20_0_2_1 - p1_20_1 * a3c1_20_1_2_1
   - p1_20_2 * a3c1_20_2_2_1 - p1_20_3 * a3c1_20_3_2_1
   - p1_20_4 * a3c1_20_4_2_1 - p1_20_5 * a3c1_20_5_2_1
   - p1_20_6 * a3c1_20_6_2_1 - p1_20_7 * a3c1_20_7_2_1
   - p1_20_8 * a3c1_20_8_2_1 ] = 0
 qc821: p3a2_20_2_2 + [ - p1_20_0 * a3c1_20_0_2_2 - p1_20_1 * a3c1_20_1_2_2
   - p1_20_2 * a3c1_20_2_2_2 - p1_20_3 * a3c1_20_3_2_2
   - p1_20_4 * a3c1_20_4_2_2 - p1_20_5 * a3c1_20_5_2_2
   - p1_20_6 * a3c1_20_6_2_2 - p1_20_7 * a3c1_20_7_2_2
   - p1_20_8 * a3c1_20_8_2_2 ] = 0
 qc822: q3t2_20_0_0 + [ - p3a2_20_1_0 * p3a2_20_1_1 ] = 0
 qc823: p2_20_3 - p3a2_20_1_0 - p3a2_20_1_1 + q3t2_20_0_0 + [ ] = 0
 qc824: p2_20_4 - p3a2_20_1_2 - q3t2_20_0_0 + [ p3a2_20_1_2 * q3t2_20_0_0 ]
   = 0
 qc825: med3a2_20_0 + [ - p3a2_20_1_2 * q3t2_20_0_0 ] = 0
 qc826: q3t2_20_1_0 + [ - p3a2_20_2_0 * p3a2_20_2_1 ] = 0
 qc827: p2_20_5 - p3a2_20_2_0 - p3a2_20_2_1 + q3t2_20_1_0 + [ ] = 0
 qc828: p2_20_6 - p3a2_20_2_2 - q3t2_20_1_0 + [ p3a2_20_2_2 * q3t2_20_1_0 ]
   = 0
 qc829: med3a2_20_1 + [ - p3a2_20_2_2 * q3t2_20_1_0 ] = 0
 qc830: - p2_21_0 + [ p1_21_0 * rb1_21_0_0 + p1_21_1 * rb1_21_1_0
   + p1_21_2 * rb1_21_2_0 + p1_21_3 * rb1_21_3_0 + p1_21_4 * rb1_21_4_0
   + p1_21_5 * rb1_21_5_0 + p1_21_6 * rb1_21_6_0 + p1_21_7 * rb1_21_7_0 ]
   = 0
 qc831: - p2_21_1 + [ p1_21_0 * rb1_21_0_1 + p1_21_1 * rb1_21_1_1
   + p1_21_2 * rb1_21_2_1 + p1_21_3 * rb1_21_3_1 + p1_21_4 * rb1_21_4_1
   + p1_21_5 * rb1_21_5_1 + p1_21_6 * rb1_21_6_1 + p1_21_7 * rb1_21_7_1 ]
   = 0
 qc832: - p2_21_2 + [ p1_21_0 * rb1_21_0_2 + p1_21_1 * rb1_21_1_2
   + p1_21_2 * rb1_21_2_2 + p1_21_3 * rb1_21_3_2 + p1_21_4 * rb1_21_4_2
   + p1_21_5 * rb1_21_5_2 + p1_21_6 * rb1_21_6_2 + p1_21_7 * rb1_21_7_2 ]
   = 0
 qc833: - p2_21_3 + [ p1_21_0 * rb1_21_0_3 + p1_21_1 * rb1_21_1_3
   + p1_21_2 * rb1_21_2_3 + p1_21_3 * rb1_21_3_3 + p1_21_4 * rb1_21_4_3
   + p1_21_5 * rb1_21_5_3 + p1_21_6 * rb1_21_6_3 + p1_21_7 * rb1_21_7_3 ]
   = 0
 qc834: - p2_21_4 + [ p1_21_0 * rb1_21_0_4 + p1_21_1 * rb1_21_1_4
   + p1_21_2 * rb1_21_2_4 + p1_21_3 * rb1_21_3_4 + p1_21_4 * rb1_21_4_4
   + p1_21_5 * rb1_21_5_4 + p1_21_6 * rb1_21_6_4 + p1_21_7 * rb1_21_7_4 ]
   = 0
 qc835: - p2_21_5 + [ p1_21_0 * rb1_21_0_5 + p1_21_1 * rb1_21_1_5
   + p1_21_2 * rb1_21_2_5 + p1_21_3 * rb1_21_3_5 + p1_21_4 * rb1_21_4_5
   + p1_21_5 * rb1_21_5_5 + p1_21_6 * rb1_21_6_5 + p1_21_7 * rb1_21_7_5 ]
   = 0
 qc836: - p2_21_6 + [ p1_21_0 * rb1_21_0_6 + p1_21_1 * rb1_21_1_6
   + p1_21_2 * rb1_21_2_6 + p1_21_3 * rb1_21_3_6 + p1_21_4 * rb1_21_4_6
   + p1_21_5 * rb1_21_5_6 + p1_21_6 * rb1_21_6_6 + p1_21_7 * rb1_21_7_6 ]
   = 0
 qc837: - p2_21_7 + [ p1_21_0 * rb1_21_0_7 + p1_21_1 * rb1_21_1_7
   + p1_21_2 * rb1_21_2_7 + p1_21_3 * rb1_21_3_7 + p1_21_4 * rb1_21_4_7
   + p1_21_5 * rb1_21_5_7 + p1_21_6 * rb1_21_6_7 + p1_21_7 * rb1_21_7_7 ]
   = 0
 qc838: p4a2_22_1_0 + [ - p1_22_0 * a4c1_22_0_1_0 - p1_22_1 * a4c1_22_1_1_0
   - p1_22_2 * a4c1_22_2_1_0 - p1_22_3 * a4c1_22_3_1_0
   - p1_22_4 * a4c1_22_4_1_0 - p1_22_5 * a4c1_22_5_1_0
   - p1_22_6 * a4c1_22_6_1_0 ] = 0
 qc839: p4a2_22_1_1 + [ - p1_22_0 * a4c1_22_0_1_1 - p1_22_1 * a4c1_22_1_1_1
   - p1_22_2 * a4c1_22_2_1_1 - p1_22_3 * a4c1_22_3_1_1
   - p1_22_4 * a4c1_22_4_1_1 - p1_22_5 * a4c1_22_5_1_1
   - p1_22_6 * a4c1_22_6_1_1 ] = 0
 qc840: p4a2_22_1_2 + [ - p1_22_0 * a4c1_22_0_1_2 - p1_22_1 * a4c1_22_1_1_2
   - p1_22_2 * a4c1_22_2_1_2 - p1_22_3 * a4c1_22_3_1_2
   - p1_22_4 * a4c1_22_4_1_2 - p1_22_5 * a4c1_22_5_1_2
   - p1_22_6 * a4c1_22_6_1_2 ] = 0
 qc841: p4a2_22_1_3 + [ - p1_22_0 * a4c1_22_0_1_3 - p1_22_1 * a4c1_22_1_1_3
   - p1_22_2 * a4c1_22_2_1_3 - p1_22_3 * a4c1_22_3_1_3
   - p1_22_4 * a4c1_22_4_1_3 - p1_22_5 * a4c1_22_5_1_3
   - p1_22_6 * a4c1_22_6_1_3 ] = 0
 qc842: q4t2_22_0_0 + [ - p4a2_22_1_2 * p4a2_22_1_3 ] = 0
 qc843: q4t2_22_0_1 + [ - p4a2_22_1_0 * p4a2_22_1_3 ] = 0
 qc844: q4t2_22_0_2 + [ - p4a2_22_1_0 * p4a2_22_1_1 ] = 0
 qc845: q4t2_22_0_3 + [ - p4a2_22_1_1 * p4a2_22_1_3 ] = 0
 qc846: q4t2_22_0_4 + [ - p4a2_22_1_1 * p4a2_22_1_2 ] = 0
 qc847: p2_22_0 - p4a2_22_1_0 - p4a2_22_1_1 - q4t2_22_0_0 - 2 q4t2_22_0_1
   - q4t2_22_0_2 + [ p4a2_22_1_0 * q4t2_22_0_0 + p4a2_22_1_1 * q4t2_22_0_0
   + 2 p4a2_22_1_3 * q4t2_22_0_2 - q4t2_22_0_1 * q4t2_22_0_4 ] = 0
 qc848: p2_22_1 - p4a2_22_1_2 - p4a2_22_1_3 + q4t2_22_0_0 - q4t2_22_0_2 + [
   p4a2_22_1_2 * q4t2_22_0_2 + p4a2_22_1_3 * q4t2_22_0_2
   - q4t2_22_0_0 * q4t2_22_0_2 ] = 0
 qc849: med4a2_22_0 + [ - p4a2_22_1_0 * q4t2_22_0_3
   - p4a2_22_1_2 * q4t2_22_0_2 - p4a2_22_1_2 * q4t2_22_0_3
   - p4a2_22_1_3 * q4t2_22_0_2 + 2 q4t2_22_0_0 * q4t2_22_0_2 ] = 0
 qc850: p3a2_22_1_0 + [ - p1_22_0 * a3c1_22_0_1_0 - p1_22_1 * a3c1_22_1_1_0
   - p1_22_2 * a3c1_22_2_1_0 - p1_22_3 * a3c1_22_3_1_0
   - p1_22_4 * a3c1_22_4_1_0 - p1_22_5 * a3c1_22_5_1_0
   - p1_22_6 * a3c1_22_6_1_0 ] = 0
 qc851: p3a2_22_1_1 + [ - p1_22_0 * a3c1_22_0_1_1 - p1_22_1 * a3c1_22_1_1_1
   - p1_22_2 * a3c1_22_2_1_1 - p1_22_3 * a3c1_22_3_1_1
   - p1_22_4 * a3c1_22_4_1_1 - p1_22_5 * a3c1_22_5_1_1
   - p1_22_6 * a3c1_22_6_1_1 ] = 0
 qc852: p3a2_22_1_2 + [ - p1_22_0 * a3c1_22_0_1_2 - p1_22_1 * a3c1_22_1_1_2
   - p1_22_2 * a3c1_22_2_1_2 - p1_22_3 * a3c1_22_3_1_2
   - p1_22_4 * a3c1_22_4_1_2 - p1_22_5 * a3c1_22_5_1_2
   - p1_22_6 * a3c1_22_6_1_2 ] = 0
 qc853: q3t2_22_0_0 + [ - p3a2_22_1_0 * p3a2_22_1_1 ] = 0
 qc854: p2_22_2 - p3a2_22_1_0 - p3a2_22_1_1 + q3t2_22_0_0 + [ ] = 0
 qc855: p2_22_3 - p3a2_22_1_2 - q3t2_22_0_0 + [ p3a2_22_1_2 * q3t2_22_0_0 ]
   = 0
 qc856: med3a2_22_0 + [ - p3a2_22_1_2 * q3t2_22_0_0 ] = 0
 qc857: - p2_23_0 + [ p1_23_0 * rb1_23_0_0 + p1_23_1 * rb1_23_1_0
   + p1_23_2 * rb1_23_2_0 + p1_23_3 * rb1_23_3_0 + p1_23_4 * rb1_23_4_0
   + p1_23_5 * rb1_23_5_0 + p1_23_6 * rb1_23_6_0 ] = 0
 qc858: - p2_23_1 + [ p1_23_0 * rb1_23_0_1 + p1_23_1 * rb1_23_1_1
   + p1_23_2 * rb1_23_2_1 + p1_23_3 * rb1_23_3_1 + p1_23_4 * rb1_23_4_1
   + p1_23_5 * rb1_23_5_1 + p1_23_6 * rb1_23_6_1 ] = 0
 qc859: - p2_23_2 + [ p1_23_0 * rb1_23_0_2 + p1_23_1 * rb1_23_1_2
   + p1_23_2 * rb1_23_2_2 + p1_23_3 * rb1_23_3_2 + p1_23_4 * rb1_23_4_2
   + p1_23_5 * rb1_23_5_2 + p1_23_6 * rb1_23_6_2 ] = 0
 qc860: p4a2_23_1_0 + [ - p1_23_0 * a4c1_23_0_1_0 - p1_23_1 * a4c1_23_1_1_0
   - p1_23_2 * a4c1_23_2_1_0 - p1_23_3 * a4c1_23_3_1_0
   - p1_23_4 * a4c1_23_4_1_0 - p1_23_5 * a4c1_23_5_1_0
   - p1_23_6 * a4c1_23_6_1_0 ] = 0
 qc861: p4a2_23_1_1 + [ - p1_23_0 * a4c1_23_0_1_1 - p1_23_1 * a4c1_23_1_1_1
   - p1_23_2 * a4c1_23_2_1_1 - p1_23_3 * a4c1_23_3_1_1
   - p1_23_4 * a4c1_23_4_1_1 - p1_23_5 * a4c1_23_5_1_1
   - p1_23_6 * a4c1_23_6_1_1 ] = 0
 qc862: p4a2_23_1_2 + [ - p1_23_0 * a4c1_23_0_1_2 - p1_23_1 * a4c1_23_1_1_2
   - p1_23_2 * a4c1_23_2_1_2 - p1_23_3 * a4c1_23_3_1_2
   - p1_23_4 * a4c1_23_4_1_2 - p1_23_5 * a4c1_23_5_1_2
   - p1_23_6 * a4c1_23_6_1_2 ] = 0
 qc863: p4a2_23_1_3 + [ - p1_23_0 * a4c1_23_0_1_3 - p1_23_1 * a4c1_23_1_1_3
   - p1_23_2 * a4c1_23_2_1_3 - p1_23_3 * a4c1_23_3_1_3
   - p1_23_4 * a4c1_23_4_1_3 - p1_23_5 * a4c1_23_5_1_3
   - p1_23_6 * a4c1_23_6_1_3 ] = 0
 qc864: q4t2_23_0_0 + [ - p4a2_23_1_2 * p4a2_23_1_3 ] = 0
 qc865: q4t2_23_0_1 + [ - p4a2_23_1_0 * p4a2_23_1_3 ] = 0
 qc866: q4t2_23_0_2 + [ - p4a2_23_1_0 * p4a2_23_1_1 ] = 0
 qc867: q4t2_23_0_3 + [ - p4a2_23_1_1 * p4a2_23_1_3 ] = 0
 qc868: q4t2_23_0_4 + [ - p4a2_23_1_1 * p4a2_23_1_2 ] = 0
 qc869: p2_23_3 - p4a2_23_1_0 - p4a2_23_1_1 - q4t2_23_0_0 - 2 q4t2_23_0_1
   - q4t2_23_0_2 + [ p4a2_23_1_0 * q4t2_23_0_0 + p4a2_23_1_1 * q4t2_23_0_0
   + 2 p4a2_23_1_3 * q4t2_23_0_2 - q4t2_23_0_1 * q4t2_23_0_4 ] = 0
 qc870: p2_23_4 - p4a2_23_1_2 - p4a2_23_1_3 + q4t2_23_0_0 - q4t2_23_0_2 + [
   p4a2_23_1_2 * q4t2_23_0_2 + p4a2_23_1_3 * q4t2_23_0_2
   - q4t2_23_0_0 * q4t2_23_0_2 ] = 0
 qc871: med4a2_23_0 + [ - p4a2_23_1_0 * q4t2_23_0_3
   - p4a2_23_1_2 * q4t2_23_0_2 - p4a2_23_1_2 * q4t2_23_0_3
   - p4a2_23_1_3 * q4t2_23_0_2 + 2 q4t2_23_0_0 * q4t2_23_0_2 ] = 0
 qc872: - p2_24_0 + [ p1_24_0 * rb1_24_0_0 + p1_24_1 * rb1_24_1_0
   + p1_24_2 * rb1_24_2_0 + p1_24_3 * rb1_24_3_0 + p1_24_4 * rb1_24_4_0
   + p1_24_5 * rb1_24_5_0 + p1_24_6 * rb1_24_6_0 + p1_24_7 * rb1_24_7_0 ]
   = 0
 qc873: - p2_24_1 + [ p1_24_0 * rb1_24_0_1 + p1_24_1 * rb1_24_1_1
   + p1_24_2 * rb1_24_2_1 + p1_24_3 * rb1_24_3_1 + p1_24_4 * rb1_24_4_1
   + p1_24_5 * rb1_24_5_1 + p1_24_6 * rb1_24_6_1 + p1_24_7 * rb1_24_7_1 ]
   = 0
 qc874: - p2_24_2 + [ p1_24_0 * rb1_24_0_2 + p1_24_1 * rb1_24_1_2
   + p1_24_2 * rb1_24_2_2 + p1_24_3 * rb1_24_3_2 + p1_24_4 * rb1_24_4_2
   + p1_24_5 * rb1_24_5_2 + p1_24_6 * rb1_24_6_2 + p1_24_7 * rb1_24_7_2 ]
   = 0
 qc875: - p2_24_3 + [ p1_24_0 * rb1_24_0_3 + p1_24_1 * rb1_24_1_3
   + p1_24_2 * rb1_24_2_3 + p1_24_3 * rb1_24_3_3 + p1_24_4 * rb1_24_4_3
   + p1_24_5 * rb1_24_5_3 + p1_24_6 * rb1_24_6_3 + p1_24_7 * rb1_24_7_3 ]
   = 0
 qc876: - p2_24_4 + [ p1_24_0 * rb1_24_0_4 + p1_24_1 * rb1_24_1_4
   + p1_24_2 * rb1_24_2_4 + p1_24_3 * rb1_24_3_4 + p1_24_4 * rb1_24_4_4
   + p1_24_5 * rb1_24_5_4 + p1_24_6 * rb1_24_6_4 + p1_24_7 * rb1_24_7_4 ]
   = 0
 qc877: - p2_24_5 + [ p1_24_0 * rb1_24_0_5 + p1_24_1 * rb1_24_1_5
   + p1_24_2 * rb1_24_2_5 + p1_24_3 * rb1_24_3_5 + p1_24_4 * rb1_24_4_5
   + p1_24_5 * rb1_24_5_5 + p1_24_6 * rb1_24_6_5 + p1_24_7 * rb1_24_7_5 ]
   = 0
 qc878: - p2_24_6 + [ p1_24_0 * rb1_24_0_6 + p1_24_1 * rb1_24_1_6
   + p1_24_2 * rb1_24_2_6 + p1_24_3 * rb1_24_3_6 + p1_24_4 * rb1_24_4_6
   + p1_24_5 * rb1_24_5_6 + p1_24_6 * rb1_24_6_6 + p1_24_7 * rb1_24_7_6 ]
   = 0
 qc879: - p2_24_7 + [ p1_24_0 * rb1_24_0_7 + p1_24_1 * rb1_24_1_7
   + p1_24_2 * rb1_24_2_7 + p1_24_3 * rb1_24_3_7 + p1_24_4 * rb1_24_4_7
   + p1_24_5 * rb1_24_5_7 + p1_24_6 * rb1_24_6_7 + p1_24_7 * rb1_24_7_7 ]
   = 0
 qc880: - p2_25_0 + [ p1_25_0 * rb1_25_0_0 + p1_25_1 * rb1_25_1_0
   + p1_25_2 * rb1_25_2_0 + p1_25_3 * rb1_25_3_0 + p1_25_4 * rb1_25_4_0
   + p1_25_5 * rb1_25_5_0 + p1_25_6 * rb1_25_6_0 + p1_25_7 * rb1_25_7_0 ]
   = 0
 qc881: - p2_25_1 + [ p1_25_0 * rb1_25_0_1 + p1_25_1 * rb1_25_1_1
   + p1_25_2 * rb1_25_2_1 + p1_25_3 * rb1_25_3_1 + p1_25_4 * rb1_25_4_1
   + p1_25_5 * rb1_25_5_1 + p1_25_6 * rb1_25_6_1 + p1_25_7 * rb1_25_7_1 ]
   = 0
 qc882: - p2_25_2 + [ p1_25_0 * rb1_25_0_2 + p1_25_1 * rb1_25_1_2
   + p1_25_2 * rb1_25_2_2 + p1_25_3 * rb1_25_3_2 + p1_25_4 * rb1_25_4_2
   + p1_25_5 * rb1_25_5_2 + p1_25_6 * rb1_25_6_2 + p1_25_7 * rb1_25_7_2 ]
   = 0
 qc883: - p2_25_3 + [ p1_25_0 * rb1_25_0_3 + p1_25_1 * rb1_25_1_3
   + p1_25_2 * rb1_25_2_3 + p1_25_3 * rb1_25_3_3 + p1_25_4 * rb1_25_4_3
   + p1_25_5 * rb1_25_5_3 + p1_25_6 * rb1_25_6_3 + p1_25_7 * rb1_25_7_3 ]
   = 0
 qc884: - p2_25_4 + [ p1_25_0 * rb1_25_0_4 + p1_25_1 * rb1_25_1_4
   + p1_25_2 * rb1_25_2_4 + p1_25_3 * rb1_25_3_4 + p1_25_4 * rb1_25_4_4
   + p1_25_5 * rb1_25_5_4 + p1_25_6 * rb1_25_6_4 + p1_25_7 * rb1_25_7_4 ]
   = 0
 qc885: - p2_25_5 + [ p1_25_0 * rb1_25_0_5 + p1_25_1 * rb1_25_1_5
   + p1_25_2 * rb1_25_2_5 + p1_25_3 * rb1_25_3_5 + p1_25_4 * rb1_25_4_5
   + p1_25_5 * rb1_25_5_5 + p1_25_6 * rb1_25_6_5 + p1_25_7 * rb1_25_7_5 ]
   = 0
 qc886: - p2_25_6 + [ p1_25_0 * rb1_25_0_6 + p1_25_1 * rb1_25_1_6
   + p1_25_2 * rb1_25_2_6 + p1_25_3 * rb1_25_3_6 + p1_25_4 * rb1_25_4_6
   + p1_25_5 * rb1_25_5_6 + p1_25_6 * rb1_25_6_6 + p1_25_7 * rb1_25_7_6 ]
   = 0
 qc887: - p2_25_7 + [ p1_25_0 * rb1_25_0_7 + p1_25_1 * rb1_25_1_7
   + p1_25_2 * rb1_25_2_7 + p1_25_3 * rb1_25_3_7 + p1_25_4 * rb1_25_4_7
   + p1_25_5 * rb1_25_5_7 + p1_25_6 * rb1_25_6_7 + p1_25_7 * rb1_25_7_7 ]
   = 0
 qc888: - p2_26_0 + [ p1_26_0 * rb1_26_0_0 + p1_26_1 * rb1_26_1_0
   + p1_26_2 * rb1_26_2_0 + p1_26_3 * rb1_26_3_0 + p1_26_4 * rb1_26_4_0 ]
   = 0
 qc889: p4a2_26_1_0 + [ - p1_26_0 * a4c1_26_0_1_0 - p1_26_1 * a4c1_26_1_1_0
   - p1_26_2 * a4c1_26_2_1_0 - p1_26_3 * a4c1_26_3_1_0
   - p1_26_4 * a4c1_26_4_1_0 ] = 0
 qc890: p4a2_26_1_1 + [ - p1_26_0 * a4c1_26_0_1_1 - p1_26_1 * a4c1_26_1_1_1
   - p1_26_2 * a4c1_26_2_1_1 - p1_26_3 * a4c1_26_3_1_1
   - p1_26_4 * a4c1_26_4_1_1 ] = 0
 qc891: p4a2_26_1_2 + [ - p1_26_0 * a4c1_26_0_1_2 - p1_26_1 * a4c1_26_1_1_2
   - p1_26_2 * a4c1_26_2_1_2 - p1_26_3 * a4c1_26_3_1_2
   - p1_26_4 * a4c1_26_4_1_2 ] = 0
 qc892: p4a2_26_1_3 + [ - p1_26_0 * a4c1_26_0_1_3 - p1_26_1 * a4c1_26_1_1_3
   - p1_26_2 * a4c1_26_2_1_3 - p1_26_3 * a4c1_26_3_1_3
   - p1_26_4 * a4c1_26_4_1_3 ] = 0
 qc893: q4t2_26_0_0 + [ - p4a2_26_1_2 * p4a2_26_1_3 ] = 0
 qc894: q4t2_26_0_1 + [ - p4a2_26_1_0 * p4a2_26_1_3 ] = 0
 qc895: q4t2_26_0_2 + [ - p4a2_26_1_0 * p4a2_26_1_1 ] = 0
 qc896: q4t2_26_0_3 + [ - p4a2_26_1_1 * p4a2_26_1_3 ] = 0
 qc897: q4t2_26_0_4 + [ - p4a2_26_1_1 * p4a2_26_1_2 ] = 0
 qc898: p2_26_1 - p4a2_26_1_0 - p4a2_26_1_1 - q4t2_26_0_0 - 2 q4t2_26_0_1
   - q4t2_26_0_2 + [ p4a2_26_1_0 * q4t2_26_0_0 + p4a2_26_1_1 * q4t2_26_0_0
   + 2 p4a2_26_1_3 * q4t2_26_0_2 - q4t2_26_0_1 * q4t2_26_0_4 ] = 0
 qc899: p2_26_2 - p4a2_26_1_2 - p4a2_26_1_3 + q4t2_26_0_0 - q4t2_26_0_2 + [
   p4a2_26_1_2 * q4t2_26_0_2 + p4a2_26_1_3 * q4t2_26_0_2
   - q4t2_26_0_0 * q4t2_26_0_2 ] = 0
 qc900: med4a2_26_0 + [ - p4a2_26_1_0 * q4t2_26_0_3
   - p4a2_26_1_2 * q4t2_26_0_2 - p4a2_26_1_2 * q4t2_26_0_3
   - p4a2_26_1_3 * q4t2_26_0_2 + 2 q4t2_26_0_0 * q4t2_26_0_2 ] = 0
 qc901: - p2_27_0 + [ p1_27_0 * rb1_27_0_0 + p1_27_1 * rb1_27_1_0
   + p1_27_2 * rb1_27_2_0 + p1_27_3 * rb1_27_3_0 + p1_27_4 * rb1_27_4_0
   + p1_27_5 * rb1_27_5_0 ] = 0
 qc902: - p2_27_1 + [ p1_27_0 * rb1_27_0_1 + p1_27_1 * rb1_27_1_1
   + p1_27_2 * rb1_27_2_1 + p1_27_3 * rb1_27_3_1 + p1_27_4 * rb1_27_4_1
   + p1_27_5 * rb1_27_5_1 ] = 0
 qc903: - p2_27_2 + [ p1_27_0 * rb1_27_0_2 + p1_27_1 * rb1_27_1_2
   + p1_27_2 * rb1_27_2_2 + p1_27_3 * rb1_27_3_2 + p1_27_4 * rb1_27_4_2
   + p1_27_5 * rb1_27_5_2 ] = 0
 qc904: p3a2_27_1_0 + [ - p1_27_0 * a3c1_27_0_1_0 - p1_27_1 * a3c1_27_1_1_0
   - p1_27_2 * a3c1_27_2_1_0 - p1_27_3 * a3c1_27_3_1_0
   - p1_27_4 * a3c1_27_4_1_0 - p1_27_5 * a3c1_27_5_1_0 ] = 0
 qc905: p3a2_27_1_1 + [ - p1_27_0 * a3c1_27_0_1_1 - p1_27_1 * a3c1_27_1_1_1
   - p1_27_2 * a3c1_27_2_1_1 - p1_27_3 * a3c1_27_3_1_1
   - p1_27_4 * a3c1_27_4_1_1 - p1_27_5 * a3c1_27_5_1_1 ] = 0
 qc906: p3a2_27_1_2 + [ - p1_27_0 * a3c1_27_0_1_2 - p1_27_1 * a3c1_27_1_1_2
   - p1_27_2 * a3c1_27_2_1_2 - p1_27_3 * a3c1_27_3_1_2
   - p1_27_4 * a3c1_27_4_1_2 - p1_27_5 * a3c1_27_5_1_2 ] = 0
 qc907: q3t2_27_0_0 + [ - p3a2_27_1_0 * p3a2_27_1_1 ] = 0
 qc908: p2_27_3 - p3a2_27_1_0 - p3a2_27_1_1 + q3t2_27_0_0 + [ ] = 0
 qc909: p2_27_4 - p3a2_27_1_2 - q3t2_27_0_0 + [ p3a2_27_1_2 * q3t2_27_0_0 ]
   = 0
 qc910: med3a2_27_0 + [ - p3a2_27_1_2 * q3t2_27_0_0 ] = 0
 qc911: - p2_28_0 + [ p1_28_0 * rb1_28_0_0 + p1_28_1 * rb1_28_1_0
   + p1_28_2 * rb1_28_2_0 + p1_28_3 * rb1_28_3_0 + p1_28_4 * rb1_28_4_0 ]
   = 0
 qc912: - p2_28_1 + [ p1_28_0 * rb1_28_0_1 + p1_28_1 * rb1_28_1_1
   + p1_28_2 * rb1_28_2_1 + p1_28_3 * rb1_28_3_1 + p1_28_4 * rb1_28_4_1 ]
   = 0
 qc913: p3a2_28_1_0 + [ - p1_28_0 * a3c1_28_0_1_0 - p1_28_1 * a3c1_28_1_1_0
   - p1_28_2 * a3c1_28_2_1_0 - p1_28_3 * a3c1_28_3_1_0
   - p1_28_4 * a3c1_28_4_1_0 ] = 0
 qc914: p3a2_28_1_1 + [ - p1_28_0 * a3c1_28_0_1_1 - p1_28_1 * a3c1_28_1_1_1
   - p1_28_2 * a3c1_28_2_1_1 - p1_28_3 * a3c1_28_3_1_1
   - p1_28_4 * a3c1_28_4_1_1 ] = 0
 qc915: p3a2_28_1_2 + [ - p1_28_0 * a3c1_28_0_1_2 - p1_28_1 * a3c1_28_1_1_2
   - p1_28_2 * a3c1_28_2_1_2 - p1_28_3 * a3c1_28_3_1_2
   - p1_28_4 * a3c1_28_4_1_2 ] = 0
 qc916: q3t2_28_0_0 + [ - p3a2_28_1_0 * p3a2_28_1_1 ] = 0
 qc917: p2_28_2 - p3a2_28_1_0 - p3a2_28_1_1 + q3t2_28_0_0 + [ ] = 0
 qc918: p2_28_3 - p3a2_28_1_2 - q3t2_28_0_0 + [ p3a2_28_1_2 * q3t2_28_0_0 ]
   = 0
 qc919: med3a2_28_0 + [ - p3a2_28_1_2 * q3t2_28_0_0 ] = 0
 qc920: - p2_29_0 + [ p1_29_0 * rb1_29_0_0 + p1_29_1 * rb1_29_1_0
   + p1_29_2 * rb1_29_2_0 + p1_29_3 * rb1_29_3_0 + p1_29_4 * rb1_29_4_0
   + p1_29_5 * rb1_29_5_0 ] = 0
 qc921: - p2_29_1 + [ p1_29_0 * rb1_29_0_1 + p1_29_1 * rb1_29_1_1
   + p1_29_2 * rb1_29_2_1 + p1_29_3 * rb1_29_3_1 + p1_29_4 * rb1_29_4_1
   + p1_29_5 * rb1_29_5_1 ] = 0
 qc922: - p2_29_2 + [ p1_29_0 * rb1_29_0_2 + p1_29_1 * rb1_29_1_2
   + p1_29_2 * rb1_29_2_2 + p1_29_3 * rb1_29_3_2 + p1_29_4 * rb1_29_4_2
   + p1_29_5 * rb1_29_5_2 ] = 0
 qc923: - p2_29_3 + [ p1_29_0 * rb1_29_0_3 + p1_29_1 * rb1_29_1_3
   + p1_29_2 * rb1_29_2_3 + p1_29_3 * rb1_29_3_3 + p1_29_4 * rb1_29_4_3
   + p1_29_5 * rb1_29_5_3 ] = 0
 qc924: - p2_29_4 + [ p1_29_0 * rb1_29_0_4 + p1_29_1 * rb1_29_1_4
   + p1_29_2 * rb1_29_2_4 + p1_29_3 * rb1_29_3_4 + p1_29_4 * rb1_29_4_4
   + p1_29_5 * rb1_29_5_4 ] = 0
 qc925: - p2_29_5 + [ p1_29_0 * rb1_29_0_5 + p1_29_1 * rb1_29_1_5
   + p1_29_2 * rb1_29_2_5 + p1_29_3 * rb1_29_3_5 + p1_29_4 * rb1_29_4_5
   + p1_29_5 * rb1_29_5_5 ] = 0
 qc926: - p2_30_0 + [ p1_30_0 * rb1_30_0_0 + p1_30_1 * rb1_30_1_0
   + p1_30_2 * rb1_30_2_0 + p1_30_3 * rb1_30_3_0 + p1_30_4 * rb1_30_4_0 ]
   = 0
 qc927: p4a2_30_1_0 + [ - p1_30_0 * a4c1_30_0_1_0 - p1_30_1 * a4c1_30_1_1_0
   - p1_30_2 * a4c1_30_2_1_0 - p1_30_3 * a4c1_30_3_1_0
   - p1_30_4 * a4c1_30_4_1_0 ] = 0
 qc928: p4a2_30_1_1 + [ - p1_30_0 * a4c1_30_0_1_1 - p1_30_1 * a4c1_30_1_1_1
   - p1_30_2 * a4c1_30_2_1_1 - p1_30_3 * a4c1_30_3_1_1
   - p1_30_4 * a4c1_30_4_1_1 ] = 0
 qc929: p4a2_30_1_2 + [ - p1_30_0 * a4c1_30_0_1_2 - p1_30_1 * a4c1_30_1_1_2
   - p1_30_2 * a4c1_30_2_1_2 - p1_30_3 * a4c1_30_3_1_2
   - p1_30_4 * a4c1_30_4_1_2 ] = 0
 qc930: p4a2_30_1_3 + [ - p1_30_0 * a4c1_30_0_1_3 - p1_30_1 * a4c1_30_1_1_3
   - p1_30_2 * a4c1_30_2_1_3 - p1_30_3 * a4c1_30_3_1_3
   - p1_30_4 * a4c1_30_4_1_3 ] = 0
 qc931: q4t2_30_0_0 + [ - p4a2_30_1_2 * p4a2_30_1_3 ] = 0
 qc932: q4t2_30_0_1 + [ - p4a2_30_1_0 * p4a2_30_1_3 ] = 0
 qc933: q4t2_30_0_2 + [ - p4a2_30_1_0 * p4a2_30_1_1 ] = 0
 qc934: q4t2_30_0_3 + [ - p4a2_30_1_1 * p4a2_30_1_3 ] = 0
 qc935: q4t2_30_0_4 + [ - p4a2_30_1_1 * p4a2_30_1_2 ] = 0
 qc936: p2_30_1 - p4a2_30_1_0 - p4a2_30_1_1 - q4t2_30_0_0 - 2 q4t2_30_0_1
   - q4t2_30_0_2 + [ p4a2_30_1_0 * q4t2_30_0_0 + p4a2_30_1_1 * q4t2_30_0_0
   + 2 p4a2_30_1_3 * q4t2_30_0_2 - q4t2_30_0_1 * q4t2_30_0_4 ] = 0
 qc937: p2_30_2 - p4a2_30_1_2 - p4a2_30_1_3 + q4t2_30_0_0 - q4t2_30_0_2 + [
   p4a2_30_1_2 * q4t2_30_0_2 + p4a2_30_1_3 * q4t2_30_0_2
   - q4t2_30_0_0 * q4t2_30_0_2 ] = 0
 qc938: med4a2_30_0 + [ - p4a2_30_1_0 * q4t2_30_0_3
   - p4a2_30_1_2 * q4t2_30_0_2 - p4a2_30_1_2 * q4t2_30_0_3
   - p4a2_30_1_3 * q4t2_30_0_2 + 2 q4t2_30_0_0 * q4t2_30_0_2 ] = 0
 qc939: - p2_31_0 + [ p1_31_0 * rb1_31_0_0 + p1_31_1 * rb1_31_1_0
   + p1_31_2 * rb1_31_2_0 + p1_31_3 * rb1_31_3_0 ] = 0
 qc940: p3a2_31_1_0 + [ - p1_31_0 * a3c1_31_0_1_0 - p1_31_1 * a3c1_31_1_1_0
   - p1_31_2 * a3c1_31_2_1_0 - p1_31_3 * a3c1_31_3_1_0 ] = 0
 qc941: p3a2_31_1_1 + [ - p1_31_0 * a3c1_31_0_1_1 - p1_31_1 * a3c1_31_1_1_1
   - p1_31_2 * a3c1_31_2_1_1 - p1_31_3 * a3c1_31_3_1_1 ] = 0
 qc942: p3a2_31_1_2 + [ - p1_31_0 * a3c1_31_0_1_2 - p1_31_1 * a3c1_31_1_1_2
   - p1_31_2 * a3c1_31_2_1_2 - p1_31_3 * a3c1_31_3_1_2 ] = 0
 qc943: q3t2_31_0_0 + [ - p3a2_31_1_0 * p3a2_31_1_1 ] = 0
 qc944: p2_31_1 - p3a2_31_1_0 - p3a2_31_1_1 + q3t2_31_0_0 + [ ] = 0
 qc945: p2_31_2 - p3a2_31_1_2 - q3t2_31_0_0 + [ p3a2_31_1_2 * q3t2_31_0_0 ]
   = 0
 qc946: med3a2_31_0 + [ - p3a2_31_1_2 * q3t2_31_0_0 ] = 0
 qc947: - p2_32_0 + [ p1_32_0 * rb1_32_0_0 + p1_32_1 * rb1_32_1_0
   + p1_32_2 * rb1_32_2_0 ] = 0
 qc948: - p2_32_1 + [ p1_32_0 * rb1_32_0_1 + p1_32_1 * rb1_32_1_1
   + p1_32_2 * rb1_32_2_1 ] = 0
 qc949: - p2_32_2 + [ p1_32_0 * rb1_32_0_2 + p1_32_1 * rb1_32_1_2
   + p1_32_2 * rb1_32_2_2 ] = 0
 qc950: - p2_33_0 + [ p1_33_0 * rb1_33_0_0 + p1_33_1 * rb1_33_1_0 ] = 0
 qc951: - p2_33_1 + [ p1_33_0 * rb1_33_0_1 + p1_33_1 * rb1_33_1_1 ] = 0
 qc952: - p2_34_0 + [ p1_34_0 * rb1_34_0_0 ] = 0
 qc953: - p3_4_0 + [ p2_4_0 * rb2_4_0_0 ] = 0
 qc954: pf3_5_1_0 + [ - p2_5_0 * f2_5_0_1_0 - p2_5_1 * f2_5_1_1_0
   - p2_5_2 * f2_5_2_1_0 ] = 0
 qc955: pf3_5_1_1 + [ - p2_5_0 * f2_5_0_1_1 - p2_5_1 * f2_5_1_1_1
   - p2_5_2 * f2_5_2_1_1 ] = 0
 qc956: pf3_5_1_2 + [ - p2_5_0 * f2_5_0_1_2 - p2_5_1 * f2_5_1_1_2
   - p2_5_2 * f2_5_2_1_2 ] = 0
 qc957: qft3_5_0_0 + [ - pf3_5_1_0 * pf3_5_1_1 ] = 0
 qc958: qft3_5_0_1 + [ - pf3_5_1_0 * pf3_5_1_2 ] = 0
 qc959: qft3_5_0_2 + [ - pf3_5_1_1 * pf3_5_1_2 ] = 0
 qc960: p3_5_0 - pf3_5_1_0 - pf3_5_1_1 - pf3_5_1_2 + 2 qft3_5_0_0
   + 2 qft3_5_0_1 + 2 qft3_5_0_2 + [ - 4 pf3_5_1_2 * qft3_5_0_0 ] = 0
 qc961: p3_4_1 - qft3_5_0_0 - qft3_5_0_1 - qft3_5_0_2 + [
   2 pf3_5_1_2 * qft3_5_0_0 ] = 0
 qc962: - p3_6_0 + [ p2_6_0 * rb2_6_0_0 ] = 0
 qc963: pf3_7_1_0 + [ - p2_7_0 * f2_7_0_1_0 - p2_7_1 * f2_7_1_1_0
   - p2_7_2 * f2_7_2_1_0 - p2_7_3 * f2_7_3_1_0 - p2_7_4 * f2_7_4_1_0
   - p2_7_5 * f2_7_5_1_0 ] = 0
 qc964: pf3_7_1_1 + [ - p2_7_0 * f2_7_0_1_1 - p2_7_1 * f2_7_1_1_1
   - p2_7_2 * f2_7_2_1_1 - p2_7_3 * f2_7_3_1_1 - p2_7_4 * f2_7_4_1_1
   - p2_7_5 * f2_7_5_1_1 ] = 0
 qc965: pf3_7_1_2 + [ - p2_7_0 * f2_7_0_1_2 - p2_7_1 * f2_7_1_1_2
   - p2_7_2 * f2_7_2_1_2 - p2_7_3 * f2_7_3_1_2 - p2_7_4 * f2_7_4_1_2
   - p2_7_5 * f2_7_5_1_2 ] = 0
 qc966: pf3_7_2_0 + [ - p2_7_0 * f2_7_0_2_0 - p2_7_1 * f2_7_1_2_0
   - p2_7_2 * f2_7_2_2_0 - p2_7_3 * f2_7_3_2_0 - p2_7_4 * f2_7_4_2_0
   - p2_7_5 * f2_7_5_2_0 ] = 0
 qc967: pf3_7_2_1 + [ - p2_7_0 * f2_7_0_2_1 - p2_7_1 * f2_7_1_2_1
   - p2_7_2 * f2_7_2_2_1 - p2_7_3 * f2_7_3_2_1 - p2_7_4 * f2_7_4_2_1
   - p2_7_5 * f2_7_5_2_1 ] = 0
 qc968: pf3_7_2_2 + [ - p2_7_0 * f2_7_0_2_2 - p2_7_1 * f2_7_1_2_2
   - p2_7_2 * f2_7_2_2_2 - p2_7_3 * f2_7_3_2_2 - p2_7_4 * f2_7_4_2_2
   - p2_7_5 * f2_7_5_2_2 ] = 0
 qc969: qft3_7_0_0 + [ - pf3_7_1_0 * pf3_7_1_1 ] = 0
 qc970: qft3_7_0_1 + [ - pf3_7_1_0 * pf3_7_1_2 ] = 0
 qc971: qft3_7_0_2 + [ - pf3_7_1_1 * pf3_7_1_2 ] = 0
 qc972: p3_7_0 - pf3_7_1_0 - pf3_7_1_1 - pf3_7_1_2 + 2 qft3_7_0_0
   + 2 qft3_7_0_1 + 2 qft3_7_0_2 + [ - 4 pf3_7_1_2 * qft3_7_0_0 ] = 0
 qc973: p3_6_1 - qft3_7_0_0 - qft3_7_0_1 - qft3_7_0_2 + [
   2 pf3_7_1_2 * qft3_7_0_0 ] = 0
 qc974: qft3_7_1_0 + [ - pf3_7_2_0 * pf3_7_2_1 ] = 0
 qc975: qft3_7_1_1 + [ - pf3_7_2_0 * pf3_7_2_2 ] = 0
 qc976: qft3_7_1_2 + [ - pf3_7_2_1 * pf3_7_2_2 ] = 0
 qc977: p3_7_1 - pf3_7_2_0 - pf3_7_2_1 - pf3_7_2_2 + 2 qft3_7_1_0
   + 2 qft3_7_1_1 + 2 qft3_7_1_2 + [ - 4 pf3_7_2_2 * qft3_7_1_0 ] = 0
 qc978: p3_6_2 - qft3_7_1_0 - qft3_7_1_1 - qft3_7_1_2 + [
   2 pf3_7_2_2 * qft3_7_1_0 ] = 0
 qc979: - p3_8_0 + [ p2_8_0 * rb2_8_0_0 + p2_8_1 * rb2_8_1_0
   + p2_8_2 * rb2_8_2_0 + p2_8_3 * rb2_8_3_0 ] = 0
 qc980: pf3_8_1_0 + [ - p2_8_0 * f2_8_0_1_0 - p2_8_1 * f2_8_1_1_0
   - p2_8_2 * f2_8_2_1_0 - p2_8_3 * f2_8_3_1_0 ] = 0
 qc981: pf3_8_1_1 + [ - p2_8_0 * f2_8_0_1_1 - p2_8_1 * f2_8_1_1_1
   - p2_8_2 * f2_8_2_1_1 - p2_8_3 * f2_8_3_1_1 ] = 0
 qc982: pf3_8_1_2 + [ - p2_8_0 * f2_8_0_1_2 - p2_8_1 * f2_8_1_1_2
   - p2_8_2 * f2_8_2_1_2 - p2_8_3 * f2_8_3_1_2 ] = 0
 qc983: qft3_8_0_0 + [ - pf3_8_1_0 * pf3_8_1_1 ] = 0
 qc984: qft3_8_0_1 + [ - pf3_8_1_0 * pf3_8_1_2 ] = 0
 qc985: qft3_8_0_2 + [ - pf3_8_1_1 * pf3_8_1_2 ] = 0
 qc986: p3_8_1 - pf3_8_1_0 - pf3_8_1_1 - pf3_8_1_2 + 2 qft3_8_0_0
   + 2 qft3_8_0_1 + 2 qft3_8_0_2 + [ - 4 pf3_8_1_2 * qft3_8_0_0 ] = 0
 qc987: p3_7_2 - qft3_8_0_0 - qft3_8_0_1 - qft3_8_0_2 + [
   2 pf3_8_1_2 * qft3_8_0_0 ] = 0
 qc988: - p3_9_0 + [ p2_9_0 * rb2_9_0_0 + p2_9_1 * rb2_9_1_0
   + p2_9_2 * rb2_9_2_0 + p2_9_3 * rb2_9_3_0 ] = 0
 qc989: pf3_9_1_0 + [ - p2_9_0 * f2_9_0_1_0 - p2_9_1 * f2_9_1_1_0
   - p2_9_2 * f2_9_2_1_0 - p2_9_3 * f2_9_3_1_0 ] = 0
 qc990: pf3_9_1_1 + [ - p2_9_0 * f2_9_0_1_1 - p2_9_1 * f2_9_1_1_1
   - p2_9_2 * f2_9_2_1_1 - p2_9_3 * f2_9_3_1_1 ] = 0
 qc991: pf3_9_1_2 + [ - p2_9_0 * f2_9_0_1_2 - p2_9_1 * f2_9_1_1_2
   - p2_9_2 * f2_9_2_1_2 - p2_9_3 * f2_9_3_1_2 ] = 0
 qc992: qft3_9_0_0 + [ - pf3_9_1_0 * pf3_9_1_1 ] = 0
 qc993: qft3_9_0_1 + [ - pf3_9_1_0 * pf3_9_1_2 ] = 0
 qc994: qft3_9_0_2 + [ - pf3_9_1_1 * pf3_9_1_2 ] = 0
 qc995: p3_9_1 - pf3_9_1_0 - pf3_9_1_1 - pf3_9_1_2 + 2 qft3_9_0_0
   + 2 qft3_9_0_1 + 2 qft3_9_0_2 + [ - 4 pf3_9_1_2 * qft3_9_0_0 ] = 0
 qc996: p3_8_2 - qft3_9_0_0 - qft3_9_0_1 - qft3_9_0_2 + [
   2 pf3_9_1_2 * qft3_9_0_0 ] = 0
 qc997: - p3_10_0 + [ p2_10_0 * rb2_10_0_0 + p2_10_1 * rb2_10_1_0
   + p2_10_2 * rb2_10_2_0 + p2_10_3 * rb2_10_3_0 ] = 0
 qc998: pf3_10_1_0 + [ - p2_10_0 * f2_10_0_1_0 - p2_10_1 * f2_10_1_1_0
   - p2_10_2 * f2_10_2_1_0 - p2_10_3 * f2_10_3_1_0 ] = 0
 qc999: pf3_10_1_1 + [ - p2_10_0 * f2_10_0_1_1 - p2_10_1 * f2_10_1_1_1
   - p2_10_2 * f2_10_2_1_1 - p2_10_3 * f2_10_3_1_1 ] = 0
 qc1000: pf3_10_1_2 + [ - p2_10_0 * f2_10_0_1_2 - p2_10_1 * f2_10_1_1_2
   - p2_10_2 * f2_10_2_1_2 - p2_10_3 * f2_10_3_1_2 ] = 0
 qc1001: qft3_10_0_0 + [ - pf3_10_1_0 * pf3_10_1_1 ] = 0
 qc1002: qft3_10_0_1 + [ - pf3_10_1_0 * pf3_10_1_2 ] = 0
 qc1003: qft3_10_0_2 + [ - pf3_10_1_1 * pf3_10_1_2 ] = 0
 qc1004: p3_10_1 - pf3_10_1_0 - pf3_10_1_1 - pf3_10_1_2 + 2 qft3_10_0_0
   + 2 qft3_10_0_1 + 2 qft3_10_0_2 + [ - 4 pf3_10_1_2 * qft3_10_0_0 ] = 0
 qc1005: p3_9_2 - qft3_10_0_0 - qft3_10_0_1 - qft3_10_0_2 + [
   2 pf3_10_1_2 * qft3_10_0_0 ] = 0
 qc1006: - p3_11_0 + [ p2_11_0 * rb2_11_0_0 + p2_11_1 * rb2_11_1_0
   + p2_11_2 * rb2_11_2_0 + p2_11_3 * rb2_11_3_0 ] = 0
 qc1007: pf3_11_1_0 + [ - p2_11_0 * f2_11_0_1_0 - p2_11_1 * f2_11_1_1_0
   - p2_11_2 * f2_11_2_1_0 - p2_11_3 * f2_11_3_1_0 ] = 0
 qc1008: pf3_11_1_1 + [ - p2_11_0 * f2_11_0_1_1 - p2_11_1 * f2_11_1_1_1
   - p2_11_2 * f2_11_2_1_1 - p2_11_3 * f2_11_3_1_1 ] = 0
 qc1009: pf3_11_1_2 + [ - p2_11_0 * f2_11_0_1_2 - p2_11_1 * f2_11_1_1_2
   - p2_11_2 * f2_11_2_1_2 - p2_11_3 * f2_11_3_1_2 ] = 0
 qc1010: qft3_11_0_0 + [ - pf3_11_1_0 * pf3_11_1_1 ] = 0
 qc1011: qft3_11_0_1 + [ - pf3_11_1_0 * pf3_11_1_2 ] = 0
 qc1012: qft3_11_0_2 + [ - pf3_11_1_1 * pf3_11_1_2 ] = 0
 qc1013: p3_11_1 - pf3_11_1_0 - pf3_11_1_1 - pf3_11_1_2 + 2 qft3_11_0_0
   + 2 qft3_11_0_1 + 2 qft3_11_0_2 + [ - 4 pf3_11_1_2 * qft3_11_0_0 ] = 0
 qc1014: p3_10_2 - qft3_11_0_0 - qft3_11_0_1 - qft3_11_0_2 + [
   2 pf3_11_1_2 * qft3_11_0_0 ] = 0
 qc1015: - p3_12_0 + [ p2_12_0 * rb2_12_0_0 + p2_12_1 * rb2_12_1_0
   + p2_12_2 * rb2_12_2_0 + p2_12_3 * rb2_12_3_0 ] = 0
 qc1016: pf3_12_1_0 + [ - p2_12_0 * f2_12_0_1_0 - p2_12_1 * f2_12_1_1_0
   - p2_12_2 * f2_12_2_1_0 - p2_12_3 * f2_12_3_1_0 ] = 0
 qc1017: pf3_12_1_1 + [ - p2_12_0 * f2_12_0_1_1 - p2_12_1 * f2_12_1_1_1
   - p2_12_2 * f2_12_2_1_1 - p2_12_3 * f2_12_3_1_1 ] = 0
 qc1018: pf3_12_1_2 + [ - p2_12_0 * f2_12_0_1_2 - p2_12_1 * f2_12_1_1_2
   - p2_12_2 * f2_12_2_1_2 - p2_12_3 * f2_12_3_1_2 ] = 0
 qc1019: qft3_12_0_0 + [ - pf3_12_1_0 * pf3_12_1_1 ] = 0
 qc1020: qft3_12_0_1 + [ - pf3_12_1_0 * pf3_12_1_2 ] = 0
 qc1021: qft3_12_0_2 + [ - pf3_12_1_1 * pf3_12_1_2 ] = 0
 qc1022: p3_12_1 - pf3_12_1_0 - pf3_12_1_1 - pf3_12_1_2 + 2 qft3_12_0_0
   + 2 qft3_12_0_1 + 2 qft3_12_0_2 + [ - 4 pf3_12_1_2 * qft3_12_0_0 ] = 0
 qc1023: p3_11_2 - qft3_12_0_0 - qft3_12_0_1 - qft3_12_0_2 + [
   2 pf3_12_1_2 * qft3_12_0_0 ] = 0
 qc1024: p3a3_13_1_0 + [ - p2_13_0 * a3c2_13_0_1_0
   - p2_13_1 * a3c2_13_1_1_0 - p2_13_2 * a3c2_13_2_1_0
   - p2_13_3 * a3c2_13_3_1_0 - p2_13_4 * a3c2_13_4_1_0
   - p2_13_5 * a3c2_13_5_1_0 ] = 0
 qc1025: p3a3_13_1_1 + [ - p2_13_0 * a3c2_13_0_1_1
   - p2_13_1 * a3c2_13_1_1_1 - p2_13_2 * a3c2_13_2_1_1
   - p2_13_3 * a3c2_13_3_1_1 - p2_13_4 * a3c2_13_4_1_1
   - p2_13_5 * a3c2_13_5_1_1 ] = 0
 qc1026: p3a3_13_1_2 + [ - p2_13_0 * a3c2_13_0_1_2
   - p2_13_1 * a3c2_13_1_1_2 - p2_13_2 * a3c2_13_2_1_2
   - p2_13_3 * a3c2_13_3_1_2 - p2_13_4 * a3c2_13_4_1_2
   - p2_13_5 * a3c2_13_5_1_2 ] = 0
 qc1027: q3t3_13_0_0 + [ - p3a3_13_1_0 * p3a3_13_1_1 ] = 0
 qc1028: p3_13_0 - p3a3_13_1_0 - p3a3_13_1_1 + q3t3_13_0_0 + [ ] = 0
 qc1029: p3_13_1 - p3a3_13_1_2 - q3t3_13_0_0 + [ p3a3_13_1_2 * q3t3_13_0_0
   ] = 0
 qc1030: med3a3_13_0 + [ - p3a3_13_1_2 * q3t3_13_0_0 ] = 0
 qc1031: pf3_13_1_0 + [ - p2_13_0 * f2_13_0_1_0 - p2_13_1 * f2_13_1_1_0
   - p2_13_2 * f2_13_2_1_0 - p2_13_3 * f2_13_3_1_0 - p2_13_4 * f2_13_4_1_0
   - p2_13_5 * f2_13_5_1_0 ] = 0
 qc1032: pf3_13_1_1 + [ - p2_13_0 * f2_13_0_1_1 - p2_13_1 * f2_13_1_1_1
   - p2_13_2 * f2_13_2_1_1 - p2_13_3 * f2_13_3_1_1 - p2_13_4 * f2_13_4_1_1
   - p2_13_5 * f2_13_5_1_1 ] = 0
 qc1033: pf3_13_1_2 + [ - p2_13_0 * f2_13_0_1_2 - p2_13_1 * f2_13_1_1_2
   - p2_13_2 * f2_13_2_1_2 - p2_13_3 * f2_13_3_1_2 - p2_13_4 * f2_13_4_1_2
   - p2_13_5 * f2_13_5_1_2 ] = 0
 qc1034: qft3_13_0_0 + [ - pf3_13_1_0 * pf3_13_1_1 ] = 0
 qc1035: qft3_13_0_1 + [ - pf3_13_1_0 * pf3_13_1_2 ] = 0
 qc1036: qft3_13_0_2 + [ - pf3_13_1_1 * pf3_13_1_2 ] = 0
 qc1037: p3_13_2 - pf3_13_1_0 - pf3_13_1_1 - pf3_13_1_2 + 2 qft3_13_0_0
   + 2 qft3_13_0_1 + 2 qft3_13_0_2 + [ - 4 pf3_13_1_2 * qft3_13_0_0 ] = 0
 qc1038: p3_12_2 - qft3_13_0_0 - qft3_13_0_1 - qft3_13_0_2 + [
   2 pf3_13_1_2 * qft3_13_0_0 ] = 0
 qc1039: - p3_14_0 + [ p2_14_0 * rb2_14_0_0 + p2_14_1 * rb2_14_1_0
   + p2_14_2 * rb2_14_2_0 + p2_14_3 * rb2_14_3_0 ] = 0
 qc1040: - p3_14_1 + [ p2_14_0 * rb2_14_0_1 + p2_14_1 * rb2_14_1_1
   + p2_14_2 * rb2_14_2_1 + p2_14_3 * rb2_14_3_1 ] = 0
 qc1041: - p3_14_2 + [ p2_14_0 * rb2_14_0_2 + p2_14_1 * rb2_14_1_2
   + p2_14_2 * rb2_14_2_2 + p2_14_3 * rb2_14_3_2 ] = 0
 qc1042: - p3_14_3 + [ p2_14_0 * rb2_14_0_3 + p2_14_1 * rb2_14_1_3
   + p2_14_2 * rb2_14_2_3 + p2_14_3 * rb2_14_3_3 ] = 0
 qc1043: - p3_15_0 + [ p2_15_0 * rb2_15_0_0 + p2_15_1 * rb2_15_1_0 ] = 0
 qc1044: - p3_15_1 + [ p2_15_0 * rb2_15_0_1 + p2_15_1 * rb2_15_1_1 ] = 0
 qc1045: p3a3_16_1_0 + [ - p2_16_0 * a3c2_16_0_1_0
   - p2_16_1 * a3c2_16_1_1_0 - p2_16_2 * a3c2_16_2_1_0
   - p2_16_3 * a3c2_16_3_1_0 - p2_16_4 * a3c2_16_4_1_0
   - p2_16_5 * a3c2_16_5_1_0 ] = 0
 qc1046: p3a3_16_1_1 + [ - p2_16_0 * a3c2_16_0_1_1
   - p2_16_1 * a3c2_16_1_1_1 - p2_16_2 * a3c2_16_2_1_1
   - p2_16_3 * a3c2_16_3_1_1 - p2_16_4 * a3c2_16_4_1_1
   - p2_16_5 * a3c2_16_5_1_1 ] = 0
 qc1047: p3a3_16_1_2 + [ - p2_16_0 * a3c2_16_0_1_2
   - p2_16_1 * a3c2_16_1_1_2 - p2_16_2 * a3c2_16_2_1_2
   - p2_16_3 * a3c2_16_3_1_2 - p2_16_4 * a3c2_16_4_1_2
   - p2_16_5 * a3c2_16_5_1_2 ] = 0
 qc1048: p3a3_16_2_0 + [ - p2_16_0 * a3c2_16_0_2_0
   - p2_16_1 * a3c2_16_1_2_0 - p2_16_2 * a3c2_16_2_2_0
   - p2_16_3 * a3c2_16_3_2_0 - p2_16_4 * a3c2_16_4_2_0
   - p2_16_5 * a3c2_16_5_2_0 ] = 0
 qc1049: p3a3_16_2_1 + [ - p2_16_0 * a3c2_16_0_2_1
   - p2_16_1 * a3c2_16_1_2_1 - p2_16_2 * a3c2_16_2_2_1
   - p2_16_3 * a3c2_16_3_2_1 - p2_16_4 * a3c2_16_4_2_1
   - p2_16_5 * a3c2_16_5_2_1 ] = 0
 qc1050: p3a3_16_2_2 + [ - p2_16_0 * a3c2_16_0_2_2
   - p2_16_1 * a3c2_16_1_2_2 - p2_16_2 * a3c2_16_2_2_2
   - p2_16_3 * a3c2_16_3_2_2 - p2_16_4 * a3c2_16_4_2_2
   - p2_16_5 * a3c2_16_5_2_2 ] = 0
 qc1051: q3t3_16_0_0 + [ - p3a3_16_1_0 * p3a3_16_1_1 ] = 0
 qc1052: p3_16_0 - p3a3_16_1_0 - p3a3_16_1_1 + q3t3_16_0_0 + [ ] = 0
 qc1053: p3_16_1 - p3a3_16_1_2 - q3t3_16_0_0 + [ p3a3_16_1_2 * q3t3_16_0_0
   ] = 0
 qc1054: med3a3_16_0 + [ - p3a3_16_1_2 * q3t3_16_0_0 ] = 0
 qc1055: q3t3_16_1_0 + [ - p3a3_16_2_0 * p3a3_16_2_1 ] = 0
 qc1056: p3_16_2 - p3a3_16_2_0 - p3a3_16_2_1 + q3t3_16_1_0 + [ ] = 0
 qc1057: p3_16_3 - p3a3_16_2_2 - q3t3_16_1_0 + [ p3a3_16_2_2 * q3t3_16_1_0
   ] = 0
 qc1058: med3a3_16_1 + [ - p3a3_16_2_2 * q3t3_16_1_0 ] = 0
 qc1059: - p3_17_0 + [ p2_17_0 * rb2_17_0_0 + p2_17_1 * rb2_17_1_0
   + p2_17_2 * rb2_17_2_0 + p2_17_3 * rb2_17_3_0 + p2_17_4 * rb2_17_4_0 ]
   = 0
 qc1060: p4a3_17_1_0 + [ - p2_17_0 * a4c2_17_0_1_0
   - p2_17_1 * a4c2_17_1_1_0 - p2_17_2 * a4c2_17_2_1_0
   - p2_17_3 * a4c2_17_3_1_0 - p2_17_4 * a4c2_17_4_1_0 ] = 0
 qc1061: p4a3_17_1_1 + [ - p2_17_0 * a4c2_17_0_1_1
   - p2_17_1 * a4c2_17_1_1_1 - p2_17_2 * a4c2_17_2_1_1
   - p2_17_3 * a4c2_17_3_1_1 - p2_17_4 * a4c2_17_4_1_1 ] = 0
 qc1062: p4a3_17_1_2 + [ - p2_17_0 * a4c2_17_0_1_2
   - p2_17_1 * a4c2_17_1_1_2 - p2_17_2 * a4c2_17_2_1_2
   - p2_17_3 * a4c2_17_3_1_2 - p2_17_4 * a4c2_17_4_1_2 ] = 0
 qc1063: p4a3_17_1_3 + [ - p2_17_0 * a4c2_17_0_1_3
   - p2_17_1 * a4c2_17_1_1_3 - p2_17_2 * a4c2_17_2_1_3
   - p2_17_3 * a4c2_17_3_1_3 - p2_17_4 * a4c2_17_4_1_3 ] = 0
 qc1064: q4t3_17_0_0 + [ - p4a3_17_1_2 * p4a3_17_1_3 ] = 0
 qc1065: q4t3_17_0_1 + [ - p4a3_17_1_0 * p4a3_17_1_3 ] = 0
 qc1066: q4t3_17_0_2 + [ - p4a3_17_1_0 * p4a3_17_1_1 ] = 0
 qc1067: q4t3_17_0_3 + [ - p4a3_17_1_1 * p4a3_17_1_3 ] = 0
 qc1068: q4t3_17_0_4 + [ - p4a3_17_1_1 * p4a3_17_1_2 ] = 0
 qc1069: p3_17_1 - p4a3_17_1_0 - p4a3_17_1_1 - q4t3_17_0_0 - 2 q4t3_17_0_1
   - q4t3_17_0_2 + [ p4a3_17_1_0 * q4t3_17_0_0 + p4a3_17_1_1 * q4t3_17_0_0
   + 2 p4a3_17_1_3 * q4t3_17_0_2 - q4t3_17_0_1 * q4t3_17_0_4 ] = 0
 qc1070: p3_17_2 - p4a3_17_1_2 - p4a3_17_1_3 + q4t3_17_0_0 - q4t3_17_0_2
   + [ p4a3_17_1_2 * q4t3_17_0_2 + p4a3_17_1_3 * q4t3_17_0_2
   - q4t3_17_0_0 * q4t3_17_0_2 ] = 0
 qc1071: med4a3_17_0 + [ - p4a3_17_1_0 * q4t3_17_0_3
   - p4a3_17_1_2 * q4t3_17_0_2 - p4a3_17_1_2 * q4t3_17_0_3
   - p4a3_17_1_3 * q4t3_17_0_2 + 2 q4t3_17_0_0 * q4t3_17_0_2 ] = 0
 qc1072: - p3_18_0 + [ p2_18_0 * rb2_18_0_0 + p2_18_1 * rb2_18_1_0
   + p2_18_2 * rb2_18_2_0 + p2_18_3 * rb2_18_3_0 + p2_18_4 * rb2_18_4_0 ]
   = 0
 qc1073: p4a3_18_1_0 + [ - p2_18_0 * a4c2_18_0_1_0
   - p2_18_1 * a4c2_18_1_1_0 - p2_18_2 * a4c2_18_2_1_0
   - p2_18_3 * a4c2_18_3_1_0 - p2_18_4 * a4c2_18_4_1_0 ] = 0
 qc1074: p4a3_18_1_1 + [ - p2_18_0 * a4c2_18_0_1_1
   - p2_18_1 * a4c2_18_1_1_1 - p2_18_2 * a4c2_18_2_1_1
   - p2_18_3 * a4c2_18_3_1_1 - p2_18_4 * a4c2_18_4_1_1 ] = 0
 qc1075: p4a3_18_1_2 + [ - p2_18_0 * a4c2_18_0_1_2
   - p2_18_1 * a4c2_18_1_1_2 - p2_18_2 * a4c2_18_2_1_2
   - p2_18_3 * a4c2_18_3_1_2 - p2_18_4 * a4c2_18_4_1_2 ] = 0
 qc1076: p4a3_18_1_3 + [ - p2_18_0 * a4c2_18_0_1_3
   - p2_18_1 * a4c2_18_1_1_3 - p2_18_2 * a4c2_18_2_1_3
   - p2_18_3 * a4c2_18_3_1_3 - p2_18_4 * a4c2_18_4_1_3 ] = 0
 qc1077: q4t3_18_0_0 + [ - p4a3_18_1_2 * p4a3_18_1_3 ] = 0
 qc1078: q4t3_18_0_1 + [ - p4a3_18_1_0 * p4a3_18_1_3 ] = 0
 qc1079: q4t3_18_0_2 + [ - p4a3_18_1_0 * p4a3_18_1_1 ] = 0
 qc1080: q4t3_18_0_3 + [ - p4a3_18_1_1 * p4a3_18_1_3 ] = 0
 qc1081: q4t3_18_0_4 + [ - p4a3_18_1_1 * p4a3_18_1_2 ] = 0
 qc1082: p3_18_1 - p4a3_18_1_0 - p4a3_18_1_1 - q4t3_18_0_0 - 2 q4t3_18_0_1
   - q4t3_18_0_2 + [ p4a3_18_1_0 * q4t3_18_0_0 + p4a3_18_1_1 * q4t3_18_0_0
   + 2 p4a3_18_1_3 * q4t3_18_0_2 - q4t3_18_0_1 * q4t3_18_0_4 ] = 0
 qc1083: p3_18_2 - p4a3_18_1_2 - p4a3_18_1_3 + q4t3_18_0_0 - q4t3_18_0_2
   + [ p4a3_18_1_2 * q4t3_18_0_2 + p4a3_18_1_3 * q4t3_18_0_2
   - q4t3_18_0_0 * q4t3_18_0_2 ] = 0
 qc1084: med4a3_18_0 + [ - p4a3_18_1_0 * q4t3_18_0_3
   - p4a3_18_1_2 * q4t3_18_0_2 - p4a3_18_1_2 * q4t3_18_0_3
   - p4a3_18_1_3 * q4t3_18_0_2 + 2 q4t3_18_0_0 * q4t3_18_0_2 ] = 0
 qc1085: p3a3_19_1_0 + [ - p2_19_0 * a3c2_19_0_1_0
   - p2_19_1 * a3c2_19_1_1_0 - p2_19_2 * a3c2_19_2_1_0
   - p2_19_3 * a3c2_19_3_1_0 - p2_19_4 * a3c2_19_4_1_0
   - p2_19_5 * a3c2_19_5_1_0 ] = 0
 qc1086: p3a3_19_1_1 + [ - p2_19_0 * a3c2_19_0_1_1
   - p2_19_1 * a3c2_19_1_1_1 - p2_19_2 * a3c2_19_2_1_1
   - p2_19_3 * a3c2_19_3_1_1 - p2_19_4 * a3c2_19_4_1_1
   - p2_19_5 * a3c2_19_5_1_1 ] = 0
 qc1087: p3a3_19_1_2 + [ - p2_19_0 * a3c2_19_0_1_2
   - p2_19_1 * a3c2_19_1_1_2 - p2_19_2 * a3c2_19_2_1_2
   - p2_19_3 * a3c2_19_3_1_2 - p2_19_4 * a3c2_19_4_1_2
   - p2_19_5 * a3c2_19_5_1_2 ] = 0
 qc1088: p3a3_19_2_0 + [ - p2_19_0 * a3c2_19_0_2_0
   - p2_19_1 * a3c2_19_1_2_0 - p2_19_2 * a3c2_19_2_2_0
   - p2_19_3 * a3c2_19_3_2_0 - p2_19_4 * a3c2_19_4_2_0
   - p2_19_5 * a3c2_19_5_2_0 ] = 0
 qc1089: p3a3_19_2_1 + [ - p2_19_0 * a3c2_19_0_2_1
   - p2_19_1 * a3c2_19_1_2_1 - p2_19_2 * a3c2_19_2_2_1
   - p2_19_3 * a3c2_19_3_2_1 - p2_19_4 * a3c2_19_4_2_1
   - p2_19_5 * a3c2_19_5_2_1 ] = 0
 qc1090: p3a3_19_2_2 + [ - p2_19_0 * a3c2_19_0_2_2
   - p2_19_1 * a3c2_19_1_2_2 - p2_19_2 * a3c2_19_2_2_2
   - p2_19_3 * a3c2_19_3_2_2 - p2_19_4 * a3c2_19_4_2_2
   - p2_19_5 * a3c2_19_5_2_2 ] = 0
 qc1091: q3t3_19_0_0 + [ - p3a3_19_1_0 * p3a3_19_1_1 ] = 0
 qc1092: p3_19_0 - p3a3_19_1_0 - p3a3_19_1_1 + q3t3_19_0_0 + [ ] = 0
 qc1093: p3_19_1 - p3a3_19_1_2 - q3t3_19_0_0 + [ p3a3_19_1_2 * q3t3_19_0_0
   ] = 0
 qc1094: med3a3_19_0 + [ - p3a3_19_1_2 * q3t3_19_0_0 ] = 0
 qc1095: q3t3_19_1_0 + [ - p3a3_19_2_0 * p3a3_19_2_1 ] = 0
 qc1096: p3_19_2 - p3a3_19_2_0 - p3a3_19_2_1 + q3t3_19_1_0 + [ ] = 0
 qc1097: p3_19_3 - p3a3_19_2_2 - q3t3_19_1_0 + [ p3a3_19_2_2 * q3t3_19_1_0
   ] = 0
 qc1098: med3a3_19_1 + [ - p3a3_19_2_2 * q3t3_19_1_0 ] = 0
 qc1099: p4a3_20_1_0 + [ - p2_20_0 * a4c2_20_0_1_0
   - p2_20_1 * a4c2_20_1_1_0 - p2_20_2 * a4c2_20_2_1_0
   - p2_20_3 * a4c2_20_3_1_0 - p2_20_4 * a4c2_20_4_1_0
   - p2_20_5 * a4c2_20_5_1_0 - p2_20_6 * a4c2_20_6_1_0 ] = 0
 qc1100: p4a3_20_1_1 + [ - p2_20_0 * a4c2_20_0_1_1
   - p2_20_1 * a4c2_20_1_1_1 - p2_20_2 * a4c2_20_2_1_1
   - p2_20_3 * a4c2_20_3_1_1 - p2_20_4 * a4c2_20_4_1_1
   - p2_20_5 * a4c2_20_5_1_1 - p2_20_6 * a4c2_20_6_1_1 ] = 0
 qc1101: p4a3_20_1_2 + [ - p2_20_0 * a4c2_20_0_1_2
   - p2_20_1 * a4c2_20_1_1_2 - p2_20_2 * a4c2_20_2_1_2
   - p2_20_3 * a4c2_20_3_1_2 - p2_20_4 * a4c2_20_4_1_2
   - p2_20_5 * a4c2_20_5_1_2 - p2_20_6 * a4c2_20_6_1_2 ] = 0
 qc1102: p4a3_20_1_3 + [ - p2_20_0 * a4c2_20_0_1_3
   - p2_20_1 * a4c2_20_1_1_3 - p2_20_2 * a4c2_20_2_1_3
   - p2_20_3 * a4c2_20_3_1_3 - p2_20_4 * a4c2_20_4_1_3
   - p2_20_5 * a4c2_20_5_1_3 - p2_20_6 * a4c2_20_6_1_3 ] = 0
 qc1103: q4t3_20_0_0 + [ - p4a3_20_1_2 * p4a3_20_1_3 ] = 0
 qc1104: q4t3_20_0_1 + [ - p4a3_20_1_0 * p4a3_20_1_3 ] = 0
 qc1105: q4t3_20_0_2 + [ - p4a3_20_1_0 * p4a3_20_1_1 ] = 0
 qc1106: q4t3_20_0_3 + [ - p4a3_20_1_1 * p4a3_20_1_3 ] = 0
 qc1107: q4t3_20_0_4 + [ - p4a3_20_1_1 * p4a3_20_1_2 ] = 0
 qc1108: p3_20_0 - p4a3_20_1_0 - p4a3_20_1_1 - q4t3_20_0_0 - 2 q4t3_20_0_1
   - q4t3_20_0_2 + [ p4a3_20_1_0 * q4t3_20_0_0 + p4a3_20_1_1 * q4t3_20_0_0
   + 2 p4a3_20_1_3 * q4t3_20_0_2 - q4t3_20_0_1 * q4t3_20_0_4 ] = 0
 qc1109: p3_20_1 - p4a3_20_1_2 - p4a3_20_1_3 + q4t3_20_0_0 - q4t3_20_0_2
   + [ p4a3_20_1_2 * q4t3_20_0_2 + p4a3_20_1_3 * q4t3_20_0_2
   - q4t3_20_0_0 * q4t3_20_0_2 ] = 0
 qc1110: med4a3_20_0 + [ - p4a3_20_1_0 * q4t3_20_0_3
   - p4a3_20_1_2 * q4t3_20_0_2 - p4a3_20_1_2 * q4t3_20_0_3
   - p4a3_20_1_3 * q4t3_20_0_2 + 2 q4t3_20_0_0 * q4t3_20_0_2 ] = 0
 qc1111: p3a3_20_1_0 + [ - p2_20_0 * a3c2_20_0_1_0
   - p2_20_1 * a3c2_20_1_1_0 - p2_20_2 * a3c2_20_2_1_0
   - p2_20_3 * a3c2_20_3_1_0 - p2_20_4 * a3c2_20_4_1_0
   - p2_20_5 * a3c2_20_5_1_0 - p2_20_6 * a3c2_20_6_1_0 ] = 0
 qc1112: p3a3_20_1_1 + [ - p2_20_0 * a3c2_20_0_1_1
   - p2_20_1 * a3c2_20_1_1_1 - p2_20_2 * a3c2_20_2_1_1
   - p2_20_3 * a3c2_20_3_1_1 - p2_20_4 * a3c2_20_4_1_1
   - p2_20_5 * a3c2_20_5_1_1 - p2_20_6 * a3c2_20_6_1_1 ] = 0
 qc1113: p3a3_20_1_2 + [ - p2_20_0 * a3c2_20_0_1_2
   - p2_20_1 * a3c2_20_1_1_2 - p2_20_2 * a3c2_20_2_1_2
   - p2_20_3 * a3c2_20_3_1_2 - p2_20_4 * a3c2_20_4_1_2
   - p2_20_5 * a3c2_20_5_1_2 - p2_20_6 * a3c2_20_6_1_2 ] = 0
 qc1114: q3t3_20_0_0 + [ - p3a3_20_1_0 * p3a3_20_1_1 ] = 0
 qc1115: p3_20_2 - p3a3_20_1_0 - p3a3_20_1_1 + q3t3_20_0_0 + [ ] = 0
 qc1116: p3_20_3 - p3a3_20_1_2 - q3t3_20_0_0 + [ p3a3_20_1_2 * q3t3_20_0_0
   ] = 0
 qc1117: med3a3_20_0 + [ - p3a3_20_1_2 * q3t3_20_0_0 ] = 0
 qc1118: p4a3_21_1_0 + [ - p2_21_0 * a4c2_21_0_1_0
   - p2_21_1 * a4c2_21_1_1_0 - p2_21_2 * a4c2_21_2_1_0
   - p2_21_3 * a4c2_21_3_1_0 - p2_21_4 * a4c2_21_4_1_0
   - p2_21_5 * a4c2_21_5_1_0 - p2_21_6 * a4c2_21_6_1_0
   - p2_21_7 * a4c2_21_7_1_0 ] = 0
 qc1119: p4a3_21_1_1 + [ - p2_21_0 * a4c2_21_0_1_1
   - p2_21_1 * a4c2_21_1_1_1 - p2_21_2 * a4c2_21_2_1_1
   - p2_21_3 * a4c2_21_3_1_1 - p2_21_4 * a4c2_21_4_1_1
   - p2_21_5 * a4c2_21_5_1_1 - p2_21_6 * a4c2_21_6_1_1
   - p2_21_7 * a4c2_21_7_1_1 ] = 0
 qc1120: p4a3_21_1_2 + [ - p2_21_0 * a4c2_21_0_1_2
   - p2_21_1 * a4c2_21_1_1_2 - p2_21_2 * a4c2_21_2_1_2
   - p2_21_3 * a4c2_21_3_1_2 - p2_21_4 * a4c2_21_4_1_2
   - p2_21_5 * a4c2_21_5_1_2 - p2_21_6 * a4c2_21_6_1_2
   - p2_21_7 * a4c2_21_7_1_2 ] = 0
 qc1121: p4a3_21_1_3 + [ - p2_21_0 * a4c2_21_0_1_3
   - p2_21_1 * a4c2_21_1_1_3 - p2_21_2 * a4c2_21_2_1_3
   - p2_21_3 * a4c2_21_3_1_3 - p2_21_4 * a4c2_21_4_1_3
   - p2_21_5 * a4c2_21_5_1_3 - p2_21_6 * a4c2_21_6_1_3
   - p2_21_7 * a4c2_21_7_1_3 ] = 0
 qc1122: p4a3_21_2_0 + [ - p2_21_0 * a4c2_21_0_2_0
   - p2_21_1 * a4c2_21_1_2_0 - p2_21_2 * a4c2_21_2_2_0
   - p2_21_3 * a4c2_21_3_2_0 - p2_21_4 * a4c2_21_4_2_0
   - p2_21_5 * a4c2_21_5_2_0 - p2_21_6 * a4c2_21_6_2_0
   - p2_21_7 * a4c2_21_7_2_0 ] = 0
 qc1123: p4a3_21_2_1 + [ - p2_21_0 * a4c2_21_0_2_1
   - p2_21_1 * a4c2_21_1_2_1 - p2_21_2 * a4c2_21_2_2_1
   - p2_21_3 * a4c2_21_3_2_1 - p2_21_4 * a4c2_21_4_2_1
   - p2_21_5 * a4c2_21_5_2_1 - p2_21_6 * a4c2_21_6_2_1
   - p2_21_7 * a4c2_21_7_2_1 ] = 0
 qc1124: p4a3_21_2_2 + [ - p2_21_0 * a4c2_21_0_2_2
   - p2_21_1 * a4c2_21_1_2_2 - p2_21_2 * a4c2_21_2_2_2
   - p2_21_3 * a4c2_21_3_2_2 - p2_21_4 * a4c2_21_4_2_2
   - p2_21_5 * a4c2_21_5_2_2 - p2_21_6 * a4c2_21_6_2_2
   - p2_21_7 * a4c2_21_7_2_2 ] = 0
 qc1125: p4a3_21_2_3 + [ - p2_21_0 * a4c2_21_0_2_3
   - p2_21_1 * a4c2_21_1_2_3 - p2_21_2 * a4c2_21_2_2_3
   - p2_21_3 * a4c2_21_3_2_3 - p2_21_4 * a4c2_21_4_2_3
   - p2_21_5 * a4c2_21_5_2_3 - p2_21_6 * a4c2_21_6_2_3
   - p2_21_7 * a4c2_21_7_2_3 ] = 0
 qc1126: q4t3_21_0_0 + [ - p4a3_21_1_2 * p4a3_21_1_3 ] = 0
 qc1127: q4t3_21_0_1 + [ - p4a3_21_1_0 * p4a3_21_1_3 ] = 0
 qc1128: q4t3_21_0_2 + [ - p4a3_21_1_0 * p4a3_21_1_1 ] = 0
 qc1129: q4t3_21_0_3 + [ - p4a3_21_1_1 * p4a3_21_1_3 ] = 0
 qc1130: q4t3_21_0_4 + [ - p4a3_21_1_1 * p4a3_21_1_2 ] = 0
 qc1131: p3_21_0 - p4a3_21_1_0 - p4a3_21_1_1 - q4t3_21_0_0 - 2 q4t3_21_0_1
   - q4t3_21_0_2 + [ p4a3_21_1_0 * q4t3_21_0_0 + p4a3_21_1_1 * q4t3_21_0_0
   + 2 p4a3_21_1_3 * q4t3_21_0_2 - q4t3_21_0_1 * q4t3_21_0_4 ] = 0
 qc1132: p3_21_1 - p4a3_21_1_2 - p4a3_21_1_3 + q4t3_21_0_0 - q4t3_21_0_2
   + [ p4a3_21_1_2 * q4t3_21_0_2 + p4a3_21_1_3 * q4t3_21_0_2
   - q4t3_21_0_0 * q4t3_21_0_2 ] = 0
 qc1133: med4a3_21_0 + [ - p4a3_21_1_0 * q4t3_21_0_3
   - p4a3_21_1_2 * q4t3_21_0_2 - p4a3_21_1_2 * q4t3_21_0_3
   - p4a3_21_1_3 * q4t3_21_0_2 + 2 q4t3_21_0_0 * q4t3_21_0_2 ] = 0
 qc1134: q4t3_21_1_0 + [ - p4a3_21_2_2 * p4a3_21_2_3 ] = 0
 qc1135: q4t3_21_1_1 + [ - p4a3_21_2_0 * p4a3_21_2_3 ] = 0
 qc1136: q4t3_21_1_2 + [ - p4a3_21_2_0 * p4a3_21_2_1 ] = 0
 qc1137: q4t3_21_1_3 + [ - p4a3_21_2_1 * p4a3_21_2_3 ] = 0
 qc1138: q4t3_21_1_4 + [ - p4a3_21_2_1 * p4a3_21_2_2 ] = 0
 qc1139: p3_21_2 - p4a3_21_2_0 - p4a3_21_2_1 - q4t3_21_1_0 - 2 q4t3_21_1_1
   - q4t3_21_1_2 + [ p4a3_21_2_0 * q4t3_21_1_0 + p4a3_21_2_1 * q4t3_21_1_0
   + 2 p4a3_21_2_3 * q4t3_21_1_2 - q4t3_21_1_1 * q4t3_21_1_4 ] = 0
 qc1140: p3_21_3 - p4a3_21_2_2 - p4a3_21_2_3 + q4t3_21_1_0 - q4t3_21_1_2
   + [ p4a3_21_2_2 * q4t3_21_1_2 + p4a3_21_2_3 * q4t3_21_1_2
   - q4t3_21_1_0 * q4t3_21_1_2 ] = 0
 qc1141: med4a3_21_1 + [ - p4a3_21_2_0 * q4t3_21_1_3
   - p4a3_21_2_2 * q4t3_21_1_2 - p4a3_21_2_2 * q4t3_21_1_3
   - p4a3_21_2_3 * q4t3_21_1_2 + 2 q4t3_21_1_0 * q4t3_21_1_2 ] = 0
 qc1142: - p3_22_0 + [ p2_22_0 * rb2_22_0_0 + p2_22_1 * rb2_22_1_0
   + p2_22_2 * rb2_22_2_0 + p2_22_3 * rb2_22_3_0 ] = 0
 qc1143: - p3_22_1 + [ p2_22_0 * rb2_22_0_1 + p2_22_1 * rb2_22_1_1
   + p2_22_2 * rb2_22_2_1 + p2_22_3 * rb2_22_3_1 ] = 0
 qc1144: - p3_22_2 + [ p2_22_0 * rb2_22_0_2 + p2_22_1 * rb2_22_1_2
   + p2_22_2 * rb2_22_2_2 + p2_22_3 * rb2_22_3_2 ] = 0
 qc1145: - p3_22_3 + [ p2_22_0 * rb2_22_0_3 + p2_22_1 * rb2_22_1_3
   + p2_22_2 * rb2_22_2_3 + p2_22_3 * rb2_22_3_3 ] = 0
 qc1146: - p3_23_0 + [ p2_23_0 * rb2_23_0_0 + p2_23_1 * rb2_23_1_0
   + p2_23_2 * rb2_23_2_0 + p2_23_3 * rb2_23_3_0 + p2_23_4 * rb2_23_4_0 ]
   = 0
 qc1147: - p3_23_1 + [ p2_23_0 * rb2_23_0_1 + p2_23_1 * rb2_23_1_1
   + p2_23_2 * rb2_23_2_1 + p2_23_3 * rb2_23_3_1 + p2_23_4 * rb2_23_4_1 ]
   = 0
 qc1148: p3a3_23_1_0 + [ - p2_23_0 * a3c2_23_0_1_0
   - p2_23_1 * a3c2_23_1_1_0 - p2_23_2 * a3c2_23_2_1_0
   - p2_23_3 * a3c2_23_3_1_0 - p2_23_4 * a3c2_23_4_1_0 ] = 0
 qc1149: p3a3_23_1_1 + [ - p2_23_0 * a3c2_23_0_1_1
   - p2_23_1 * a3c2_23_1_1_1 - p2_23_2 * a3c2_23_2_1_1
   - p2_23_3 * a3c2_23_3_1_1 - p2_23_4 * a3c2_23_4_1_1 ] = 0
 qc1150: p3a3_23_1_2 + [ - p2_23_0 * a3c2_23_0_1_2
   - p2_23_1 * a3c2_23_1_1_2 - p2_23_2 * a3c2_23_2_1_2
   - p2_23_3 * a3c2_23_3_1_2 - p2_23_4 * a3c2_23_4_1_2 ] = 0
 qc1151: q3t3_23_0_0 + [ - p3a3_23_1_0 * p3a3_23_1_1 ] = 0
 qc1152: p3_23_2 - p3a3_23_1_0 - p3a3_23_1_1 + q3t3_23_0_0 + [ ] = 0
 qc1153: p3_23_3 - p3a3_23_1_2 - q3t3_23_0_0 + [ p3a3_23_1_2 * q3t3_23_0_0
   ] = 0
 qc1154: med3a3_23_0 + [ - p3a3_23_1_2 * q3t3_23_0_0 ] = 0
 qc1155: p4a3_24_1_0 + [ - p2_24_0 * a4c2_24_0_1_0
   - p2_24_1 * a4c2_24_1_1_0 - p2_24_2 * a4c2_24_2_1_0
   - p2_24_3 * a4c2_24_3_1_0 - p2_24_4 * a4c2_24_4_1_0
   - p2_24_5 * a4c2_24_5_1_0 - p2_24_6 * a4c2_24_6_1_0
   - p2_24_7 * a4c2_24_7_1_0 ] = 0
 qc1156: p4a3_24_1_1 + [ - p2_24_0 * a4c2_24_0_1_1
   - p2_24_1 * a4c2_24_1_1_1 - p2_24_2 * a4c2_24_2_1_1
   - p2_24_3 * a4c2_24_3_1_1 - p2_24_4 * a4c2_24_4_1_1
   - p2_24_5 * a4c2_24_5_1_1 - p2_24_6 * a4c2_24_6_1_1
   - p2_24_7 * a4c2_24_7_1_1 ] = 0
 qc1157: p4a3_24_1_2 + [ - p2_24_0 * a4c2_24_0_1_2
   - p2_24_1 * a4c2_24_1_1_2 - p2_24_2 * a4c2_24_2_1_2
   - p2_24_3 * a4c2_24_3_1_2 - p2_24_4 * a4c2_24_4_1_2
   - p2_24_5 * a4c2_24_5_1_2 - p2_24_6 * a4c2_24_6_1_2
   - p2_24_7 * a4c2_24_7_1_2 ] = 0
 qc1158: p4a3_24_1_3 + [ - p2_24_0 * a4c2_24_0_1_3
   - p2_24_1 * a4c2_24_1_1_3 - p2_24_2 * a4c2_24_2_1_3
   - p2_24_3 * a4c2_24_3_1_3 - p2_24_4 * a4c2_24_4_1_3
   - p2_24_5 * a4c2_24_5_1_3 - p2_24_6 * a4c2_24_6_1_3
   - p2_24_7 * a4c2_24_7_1_3 ] = 0
 qc1159: p4a3_24_2_0 + [ - p2_24_0 * a4c2_24_0_2_0
   - p2_24_1 * a4c2_24_1_2_0 - p2_24_2 * a4c2_24_2_2_0
   - p2_24_3 * a4c2_24_3_2_0 - p2_24_4 * a4c2_24_4_2_0
   - p2_24_5 * a4c2_24_5_2_0 - p2_24_6 * a4c2_24_6_2_0
   - p2_24_7 * a4c2_24_7_2_0 ] = 0
 qc1160: p4a3_24_2_1 + [ - p2_24_0 * a4c2_24_0_2_1
   - p2_24_1 * a4c2_24_1_2_1 - p2_24_2 * a4c2_24_2_2_1
   - p2_24_3 * a4c2_24_3_2_1 - p2_24_4 * a4c2_24_4_2_1
   - p2_24_5 * a4c2_24_5_2_1 - p2_24_6 * a4c2_24_6_2_1
   - p2_24_7 * a4c2_24_7_2_1 ] = 0
 qc1161: p4a3_24_2_2 + [ - p2_24_0 * a4c2_24_0_2_2
   - p2_24_1 * a4c2_24_1_2_2 - p2_24_2 * a4c2_24_2_2_2
   - p2_24_3 * a4c2_24_3_2_2 - p2_24_4 * a4c2_24_4_2_2
   - p2_24_5 * a4c2_24_5_2_2 - p2_24_6 * a4c2_24_6_2_2
   - p2_24_7 * a4c2_24_7_2_2 ] = 0
 qc1162: p4a3_24_2_3 + [ - p2_24_0 * a4c2_24_0_2_3
   - p2_24_1 * a4c2_24_1_2_3 - p2_24_2 * a4c2_24_2_2_3
   - p2_24_3 * a4c2_24_3_2_3 - p2_24_4 * a4c2_24_4_2_3
   - p2_24_5 * a4c2_24_5_2_3 - p2_24_6 * a4c2_24_6_2_3
   - p2_24_7 * a4c2_24_7_2_3 ] = 0
 qc1163: q4t3_24_0_0 + [ - p4a3_24_1_2 * p4a3_24_1_3 ] = 0
 qc1164: q4t3_24_0_1 + [ - p4a3_24_1_0 * p4a3_24_1_3 ] = 0
 qc1165: q4t3_24_0_2 + [ - p4a3_24_1_0 * p4a3_24_1_1 ] = 0
 qc1166: q4t3_24_0_3 + [ - p4a3_24_1_1 * p4a3_24_1_3 ] = 0
 qc1167: q4t3_24_0_4 + [ - p4a3_24_1_1 * p4a3_24_1_2 ] = 0
 qc1168: p3_24_0 - p4a3_24_1_0 - p4a3_24_1_1 - q4t3_24_0_0 - 2 q4t3_24_0_1
   - q4t3_24_0_2 + [ p4a3_24_1_0 * q4t3_24_0_0 + p4a3_24_1_1 * q4t3_24_0_0
   + 2 p4a3_24_1_3 * q4t3_24_0_2 - q4t3_24_0_1 * q4t3_24_0_4 ] = 0
 qc1169: p3_24_1 - p4a3_24_1_2 - p4a3_24_1_3 + q4t3_24_0_0 - q4t3_24_0_2
   + [ p4a3_24_1_2 * q4t3_24_0_2 + p4a3_24_1_3 * q4t3_24_0_2
   - q4t3_24_0_0 * q4t3_24_0_2 ] = 0
 qc1170: med4a3_24_0 + [ - p4a3_24_1_0 * q4t3_24_0_3
   - p4a3_24_1_2 * q4t3_24_0_2 - p4a3_24_1_2 * q4t3_24_0_3
   - p4a3_24_1_3 * q4t3_24_0_2 + 2 q4t3_24_0_0 * q4t3_24_0_2 ] = 0
 qc1171: q4t3_24_1_0 + [ - p4a3_24_2_2 * p4a3_24_2_3 ] = 0
 qc1172: q4t3_24_1_1 + [ - p4a3_24_2_0 * p4a3_24_2_3 ] = 0
 qc1173: q4t3_24_1_2 + [ - p4a3_24_2_0 * p4a3_24_2_1 ] = 0
 qc1174: q4t3_24_1_3 + [ - p4a3_24_2_1 * p4a3_24_2_3 ] = 0
 qc1175: q4t3_24_1_4 + [ - p4a3_24_2_1 * p4a3_24_2_2 ] = 0
 qc1176: p3_24_2 - p4a3_24_2_0 - p4a3_24_2_1 - q4t3_24_1_0 - 2 q4t3_24_1_1
   - q4t3_24_1_2 + [ p4a3_24_2_0 * q4t3_24_1_0 + p4a3_24_2_1 * q4t3_24_1_0
   + 2 p4a3_24_2_3 * q4t3_24_1_2 - q4t3_24_1_1 * q4t3_24_1_4 ] = 0
 qc1177: p3_24_3 - p4a3_24_2_2 - p4a3_24_2_3 + q4t3_24_1_0 - q4t3_24_1_2
   + [ p4a3_24_2_2 * q4t3_24_1_2 + p4a3_24_2_3 * q4t3_24_1_2
   - q4t3_24_1_0 * q4t3_24_1_2 ] = 0
 qc1178: med4a3_24_1 + [ - p4a3_24_2_0 * q4t3_24_1_3
   - p4a3_24_2_2 * q4t3_24_1_2 - p4a3_24_2_2 * q4t3_24_1_3
   - p4a3_24_2_3 * q4t3_24_1_2 + 2 q4t3_24_1_0 * q4t3_24_1_2 ] = 0
 qc1179: p4a3_25_1_0 + [ - p2_25_0 * a4c2_25_0_1_0
   - p2_25_1 * a4c2_25_1_1_0 - p2_25_2 * a4c2_25_2_1_0
   - p2_25_3 * a4c2_25_3_1_0 - p2_25_4 * a4c2_25_4_1_0
   - p2_25_5 * a4c2_25_5_1_0 - p2_25_6 * a4c2_25_6_1_0
   - p2_25_7 * a4c2_25_7_1_0 ] = 0
 qc1180: p4a3_25_1_1 + [ - p2_25_0 * a4c2_25_0_1_1
   - p2_25_1 * a4c2_25_1_1_1 - p2_25_2 * a4c2_25_2_1_1
   - p2_25_3 * a4c2_25_3_1_1 - p2_25_4 * a4c2_25_4_1_1
   - p2_25_5 * a4c2_25_5_1_1 - p2_25_6 * a4c2_25_6_1_1
   - p2_25_7 * a4c2_25_7_1_1 ] = 0
 qc1181: p4a3_25_1_2 + [ - p2_25_0 * a4c2_25_0_1_2
   - p2_25_1 * a4c2_25_1_1_2 - p2_25_2 * a4c2_25_2_1_2
   - p2_25_3 * a4c2_25_3_1_2 - p2_25_4 * a4c2_25_4_1_2
   - p2_25_5 * a4c2_25_5_1_2 - p2_25_6 * a4c2_25_6_1_2
   - p2_25_7 * a4c2_25_7_1_2 ] = 0
 qc1182: p4a3_25_1_3 + [ - p2_25_0 * a4c2_25_0_1_3
   - p2_25_1 * a4c2_25_1_1_3 - p2_25_2 * a4c2_25_2_1_3
   - p2_25_3 * a4c2_25_3_1_3 - p2_25_4 * a4c2_25_4_1_3
   - p2_25_5 * a4c2_25_5_1_3 - p2_25_6 * a4c2_25_6_1_3
   - p2_25_7 * a4c2_25_7_1_3 ] = 0
 qc1183: p4a3_25_2_0 + [ - p2_25_0 * a4c2_25_0_2_0
   - p2_25_1 * a4c2_25_1_2_0 - p2_25_2 * a4c2_25_2_2_0
   - p2_25_3 * a4c2_25_3_2_0 - p2_25_4 * a4c2_25_4_2_0
   - p2_25_5 * a4c2_25_5_2_0 - p2_25_6 * a4c2_25_6_2_0
   - p2_25_7 * a4c2_25_7_2_0 ] = 0
 qc1184: p4a3_25_2_1 + [ - p2_25_0 * a4c2_25_0_2_1
   - p2_25_1 * a4c2_25_1_2_1 - p2_25_2 * a4c2_25_2_2_1
   - p2_25_3 * a4c2_25_3_2_1 - p2_25_4 * a4c2_25_4_2_1
   - p2_25_5 * a4c2_25_5_2_1 - p2_25_6 * a4c2_25_6_2_1
   - p2_25_7 * a4c2_25_7_2_1 ] = 0
 qc1185: p4a3_25_2_2 + [ - p2_25_0 * a4c2_25_0_2_2
   - p2_25_1 * a4c2_25_1_2_2 - p2_25_2 * a4c2_25_2_2_2
   - p2_25_3 * a4c2_25_3_2_2 - p2_25_4 * a4c2_25_4_2_2
   - p2_25_5 * a4c2_25_5_2_2 - p2_25_6 * a4c2_25_6_2_2
   - p2_25_7 * a4c2_25_7_2_2 ] = 0
 qc1186: p4a3_25_2_3 + [ - p2_25_0 * a4c2_25_0_2_3
   - p2_25_1 * a4c2_25_1_2_3 - p2_25_2 * a4c2_25_2_2_3
   - p2_25_3 * a4c2_25_3_2_3 - p2_25_4 * a4c2_25_4_2_3
   - p2_25_5 * a4c2_25_5_2_3 - p2_25_6 * a4c2_25_6_2_3
   - p2_25_7 * a4c2_25_7_2_3 ] = 0
 qc1187: q4t3_25_0_0 + [ - p4a3_25_1_2 * p4a3_25_1_3 ] = 0
 qc1188: q4t3_25_0_1 + [ - p4a3_25_1_0 * p4a3_25_1_3 ] = 0
 qc1189: q4t3_25_0_2 + [ - p4a3_25_1_0 * p4a3_25_1_1 ] = 0
 qc1190: q4t3_25_0_3 + [ - p4a3_25_1_1 * p4a3_25_1_3 ] = 0
 qc1191: q4t3_25_0_4 + [ - p4a3_25_1_1 * p4a3_25_1_2 ] = 0
 qc1192: p3_25_0 - p4a3_25_1_0 - p4a3_25_1_1 - q4t3_25_0_0 - 2 q4t3_25_0_1
   - q4t3_25_0_2 + [ p4a3_25_1_0 * q4t3_25_0_0 + p4a3_25_1_1 * q4t3_25_0_0
   + 2 p4a3_25_1_3 * q4t3_25_0_2 - q4t3_25_0_1 * q4t3_25_0_4 ] = 0
 qc1193: p3_25_1 - p4a3_25_1_2 - p4a3_25_1_3 + q4t3_25_0_0 - q4t3_25_0_2
   + [ p4a3_25_1_2 * q4t3_25_0_2 + p4a3_25_1_3 * q4t3_25_0_2
   - q4t3_25_0_0 * q4t3_25_0_2 ] = 0
 qc1194: med4a3_25_0 + [ - p4a3_25_1_0 * q4t3_25_0_3
   - p4a3_25_1_2 * q4t3_25_0_2 - p4a3_25_1_2 * q4t3_25_0_3
   - p4a3_25_1_3 * q4t3_25_0_2 + 2 q4t3_25_0_0 * q4t3_25_0_2 ] = 0
 qc1195: q4t3_25_1_0 + [ - p4a3_25_2_2 * p4a3_25_2_3 ] = 0
 qc1196: q4t3_25_1_1 + [ - p4a3_25_2_0 * p4a3_25_2_3 ] = 0
 qc1197: q4t3_25_1_2 + [ - p4a3_25_2_0 * p4a3_25_2_1 ] = 0
 qc1198: q4t3_25_1_3 + [ - p4a3_25_2_1 * p4a3_25_2_3 ] = 0
 qc1199: q4t3_25_1_4 + [ - p4a3_25_2_1 * p4a3_25_2_2 ] = 0
 qc1200: p3_25_2 - p4a3_25_2_0 - p4a3_25_2_1 - q4t3_25_1_0 - 2 q4t3_25_1_1
   - q4t3_25_1_2 + [ p4a3_25_2_0 * q4t3_25_1_0 + p4a3_25_2_1 * q4t3_25_1_0
   + 2 p4a3_25_2_3 * q4t3_25_1_2 - q4t3_25_1_1 * q4t3_25_1_4 ] = 0
 qc1201: p3_25_3 - p4a3_25_2_2 - p4a3_25_2_3 + q4t3_25_1_0 - q4t3_25_1_2
   + [ p4a3_25_2_2 * q4t3_25_1_2 + p4a3_25_2_3 * q4t3_25_1_2
   - q4t3_25_1_0 * q4t3_25_1_2 ] = 0
 qc1202: med4a3_25_1 + [ - p4a3_25_2_0 * q4t3_25_1_3
   - p4a3_25_2_2 * q4t3_25_1_2 - p4a3_25_2_2 * q4t3_25_1_3
   - p4a3_25_2_3 * q4t3_25_1_2 + 2 q4t3_25_1_0 * q4t3_25_1_2 ] = 0
 qc1203: p3a3_26_1_0 + [ - p2_26_0 * a3c2_26_0_1_0
   - p2_26_1 * a3c2_26_1_1_0 - p2_26_2 * a3c2_26_2_1_0 ] = 0
 qc1204: p3a3_26_1_1 + [ - p2_26_0 * a3c2_26_0_1_1
   - p2_26_1 * a3c2_26_1_1_1 - p2_26_2 * a3c2_26_2_1_1 ] = 0
 qc1205: p3a3_26_1_2 + [ - p2_26_0 * a3c2_26_0_1_2
   - p2_26_1 * a3c2_26_1_1_2 - p2_26_2 * a3c2_26_2_1_2 ] = 0
 qc1206: q3t3_26_0_0 + [ - p3a3_26_1_0 * p3a3_26_1_1 ] = 0
 qc1207: p3_26_0 - p3a3_26_1_0 - p3a3_26_1_1 + q3t3_26_0_0 + [ ] = 0
 qc1208: p3_26_1 - p3a3_26_1_2 - q3t3_26_0_0 + [ p3a3_26_1_2 * q3t3_26_0_0
   ] = 0
 qc1209: med3a3_26_0 + [ - p3a3_26_1_2 * q3t3_26_0_0 ] = 0
 qc1210: - p3_27_0 + [ p2_27_0 * rb2_27_0_0 + p2_27_1 * rb2_27_1_0
   + p2_27_2 * rb2_27_2_0 + p2_27_3 * rb2_27_3_0 + p2_27_4 * rb2_27_4_0 ]
   = 0
 qc1211: p4a3_27_1_0 + [ - p2_27_0 * a4c2_27_0_1_0
   - p2_27_1 * a4c2_27_1_1_0 - p2_27_2 * a4c2_27_2_1_0
   - p2_27_3 * a4c2_27_3_1_0 - p2_27_4 * a4c2_27_4_1_0 ] = 0
 qc1212: p4a3_27_1_1 + [ - p2_27_0 * a4c2_27_0_1_1
   - p2_27_1 * a4c2_27_1_1_1 - p2_27_2 * a4c2_27_2_1_1
   - p2_27_3 * a4c2_27_3_1_1 - p2_27_4 * a4c2_27_4_1_1 ] = 0
 qc1213: p4a3_27_1_2 + [ - p2_27_0 * a4c2_27_0_1_2
   - p2_27_1 * a4c2_27_1_1_2 - p2_27_2 * a4c2_27_2_1_2
   - p2_27_3 * a4c2_27_3_1_2 - p2_27_4 * a4c2_27_4_1_2 ] = 0
 qc1214: p4a3_27_1_3 + [ - p2_27_0 * a4c2_27_0_1_3
   - p2_27_1 * a4c2_27_1_1_3 - p2_27_2 * a4c2_27_2_1_3
   - p2_27_3 * a4c2_27_3_1_3 - p2_27_4 * a4c2_27_4_1_3 ] = 0
 qc1215: q4t3_27_0_0 + [ - p4a3_27_1_2 * p4a3_27_1_3 ] = 0
 qc1216: q4t3_27_0_1 + [ - p4a3_27_1_0 * p4a3_27_1_3 ] = 0
 qc1217: q4t3_27_0_2 + [ - p4a3_27_1_0 * p4a3_27_1_1 ] = 0
 qc1218: q4t3_27_0_3 + [ - p4a3_27_1_1 * p4a3_27_1_3 ] = 0
 qc1219: q4t3_27_0_4 + [ - p4a3_27_1_1 * p4a3_27_1_2 ] = 0
 qc1220: p3_27_1 - p4a3_27_1_0 - p4a3_27_1_1 - q4t3_27_0_0 - 2 q4t3_27_0_1
   - q4t3_27_0_2 + [ p4a3_27_1_0 * q4t3_27_0_0 + p4a3_27_1_1 * q4t3_27_0_0
   + 2 p4a3_27_1_3 * q4t3_27_0_2 - q4t3_27_0_1 * q4t3_27_0_4 ] = 0
 qc1221: p3_27_2 - p4a3_27_1_2 - p4a3_27_1_3 + q4t3_27_0_0 - q4t3_27_0_2
   + [ p4a3_27_1_2 * q4t3_27_0_2 + p4a3_27_1_3 * q4t3_27_0_2
   - q4t3_27_0_0 * q4t3_27_0_2 ] = 0
 qc1222: med4a3_27_0 + [ - p4a3_27_1_0 * q4t3_27_0_3
   - p4a3_27_1_2 * q4t3_27_0_2 - p4a3_27_1_2 * q4t3_27_0_3
   - p4a3_27_1_3 * q4t3_27_0_2 + 2 q4t3_27_0_0 * q4t3_27_0_2 ] = 0
 qc1223: - p3_28_0 + [ p2_28_0 * rb2_28_0_0 + p2_28_1 * rb2_28_1_0
   + p2_28_2 * rb2_28_2_0 + p2_28_3 * rb2_28_3_0 ] = 0
 qc1224: p3a3_28_1_0 + [ - p2_28_0 * a3c2_28_0_1_0
   - p2_28_1 * a3c2_28_1_1_0 - p2_28_2 * a3c2_28_2_1_0
   - p2_28_3 * a3c2_28_3_1_0 ] = 0
 qc1225: p3a3_28_1_1 + [ - p2_28_0 * a3c2_28_0_1_1
   - p2_28_1 * a3c2_28_1_1_1 - p2_28_2 * a3c2_28_2_1_1
   - p2_28_3 * a3c2_28_3_1_1 ] = 0
 qc1226: p3a3_28_1_2 + [ - p2_28_0 * a3c2_28_0_1_2
   - p2_28_1 * a3c2_28_1_1_2 - p2_28_2 * a3c2_28_2_1_2
   - p2_28_3 * a3c2_28_3_1_2 ] = 0
 qc1227: q3t3_28_0_0 + [ - p3a3_28_1_0 * p3a3_28_1_1 ] = 0
 qc1228: p3_28_1 - p3a3_28_1_0 - p3a3_28_1_1 + q3t3_28_0_0 + [ ] = 0
 qc1229: p3_28_2 - p3a3_28_1_2 - q3t3_28_0_0 + [ p3a3_28_1_2 * q3t3_28_0_0
   ] = 0
 qc1230: med3a3_28_0 + [ - p3a3_28_1_2 * q3t3_28_0_0 ] = 0
 qc1231: - p3_29_0 + [ p2_29_0 * rb2_29_0_0 + p2_29_1 * rb2_29_1_0
   + p2_29_2 * rb2_29_2_0 + p2_29_3 * rb2_29_3_0 + p2_29_4 * rb2_29_4_0
   + p2_29_5 * rb2_29_5_0 ] = 0
 qc1232: - p3_29_1 + [ p2_29_0 * rb2_29_0_1 + p2_29_1 * rb2_29_1_1
   + p2_29_2 * rb2_29_2_1 + p2_29_3 * rb2_29_3_1 + p2_29_4 * rb2_29_4_1
   + p2_29_5 * rb2_29_5_1 ] = 0
 qc1233: - p3_29_2 + [ p2_29_0 * rb2_29_0_2 + p2_29_1 * rb2_29_1_2
   + p2_29_2 * rb2_29_2_2 + p2_29_3 * rb2_29_3_2 + p2_29_4 * rb2_29_4_2
   + p2_29_5 * rb2_29_5_2 ] = 0
 qc1234: pf3_29_1_0 + [ - p2_29_0 * f2_29_0_1_0 - p2_29_1 * f2_29_1_1_0
   - p2_29_2 * f2_29_2_1_0 - p2_29_3 * f2_29_3_1_0 - p2_29_4 * f2_29_4_1_0
   - p2_29_5 * f2_29_5_1_0 ] = 0
 qc1235: pf3_29_1_1 + [ - p2_29_0 * f2_29_0_1_1 - p2_29_1 * f2_29_1_1_1
   - p2_29_2 * f2_29_2_1_1 - p2_29_3 * f2_29_3_1_1 - p2_29_4 * f2_29_4_1_1
   - p2_29_5 * f2_29_5_1_1 ] = 0
 qc1236: pf3_29_1_2 + [ - p2_29_0 * f2_29_0_1_2 - p2_29_1 * f2_29_1_1_2
   - p2_29_2 * f2_29_2_1_2 - p2_29_3 * f2_29_3_1_2 - p2_29_4 * f2_29_4_1_2
   - p2_29_5 * f2_29_5_1_2 ] = 0
 qc1237: qft3_29_0_0 + [ - pf3_29_1_0 * pf3_29_1_1 ] = 0
 qc1238: qft3_29_0_1 + [ - pf3_29_1_0 * pf3_29_1_2 ] = 0
 qc1239: qft3_29_0_2 + [ - pf3_29_1_1 * pf3_29_1_2 ] = 0
 qc1240: p3_29_3 - pf3_29_1_0 - pf3_29_1_1 - pf3_29_1_2 + 2 qft3_29_0_0
   + 2 qft3_29_0_1 + 2 qft3_29_0_2 + [ - 4 pf3_29_1_2 * qft3_29_0_0 ] = 0
 qc1241: p3_28_3 - qft3_29_0_0 - qft3_29_0_1 - qft3_29_0_2 + [
   2 pf3_29_1_2 * qft3_29_0_0 ] = 0
 qc1242: - p3_30_0 + [ p2_30_0 * rb2_30_0_0 + p2_30_1 * rb2_30_1_0
   + p2_30_2 * rb2_30_2_0 ] = 0
 qc1243: - p3_30_1 + [ p2_30_0 * rb2_30_0_1 + p2_30_1 * rb2_30_1_1
   + p2_30_2 * rb2_30_2_1 ] = 0
 qc1244: - p3_30_2 + [ p2_30_0 * rb2_30_0_2 + p2_30_1 * rb2_30_1_2
   + p2_30_2 * rb2_30_2_2 ] = 0
 qc1245: p3a3_31_1_0 + [ - p2_31_0 * a3c2_31_0_1_0
   - p2_31_1 * a3c2_31_1_1_0 - p2_31_2 * a3c2_31_2_1_0 ] = 0
 qc1246: p3a3_31_1_1 + [ - p2_31_0 * a3c2_31_0_1_1
   - p2_31_1 * a3c2_31_1_1_1 - p2_31_2 * a3c2_31_2_1_1 ] = 0
 qc1247: p3a3_31_1_2 + [ - p2_31_0 * a3c2_31_0_1_2
   - p2_31_1 * a3c2_31_1_1_2 - p2_31_2 * a3c2_31_2_1_2 ] = 0
 qc1248: q3t3_31_0_0 + [ - p3a3_31_1_0 * p3a3_31_1_1 ] = 0
 qc1249: p3_31_0 - p3a3_31_1_0 - p3a3_31_1_1 + q3t3_31_0_0 + [ ] = 0
 qc1250: p3_31_1 - p3a3_31_1_2 - q3t3_31_0_0 + [ p3a3_31_1_2 * q3t3_31_0_0
   ] = 0
 qc1251: med3a3_31_0 + [ - p3a3_31_1_2 * q3t3_31_0_0 ] = 0
 qc1252: - p3_32_0 + [ p2_32_0 * rb2_32_0_0 + p2_32_1 * rb2_32_1_0
   + p2_32_2 * rb2_32_2_0 ] = 0
 qc1253: - p3_32_1 + [ p2_32_0 * rb2_32_0_1 + p2_32_1 * rb2_32_1_1
   + p2_32_2 * rb2_32_2_1 ] = 0
 qc1254: - p3_32_2 + [ p2_32_0 * rb2_32_0_2 + p2_32_1 * rb2_32_1_2
   + p2_32_2 * rb2_32_2_2 ] = 0
 qc1255: - p3_33_0 + [ p2_33_0 * rb2_33_0_0 + p2_33_1 * rb2_33_1_0 ] = 0
 qc1256: - p3_33_1 + [ p2_33_0 * rb2_33_0_1 + p2_33_1 * rb2_33_1_1 ] = 0
 qc1257: - p3_34_0 + [ p2_34_0 * rb2_34_0_0 ] = 0
 qc1258: - p4_4_0 + [ p3_4_0 * rb3_4_0_0 + p3_4_1 * rb3_4_1_0 ] = 0
 qc1259: - p4_4_1 + [ p3_4_0 * rb3_4_0_1 + p3_4_1 * rb3_4_1_1 ] = 0
 qc1260: - p4_5_0 + [ p3_5_0 * rb3_5_0_0 ] = 0
 qc1261: pf4_6_1_0 + [ - p3_6_0 * f3_6_0_1_0 - p3_6_1 * f3_6_1_1_0
   - p3_6_2 * f3_6_2_1_0 ] = 0
 qc1262: pf4_6_1_1 + [ - p3_6_0 * f3_6_0_1_1 - p3_6_1 * f3_6_1_1_1
   - p3_6_2 * f3_6_2_1_1 ] = 0
 qc1263: pf4_6_1_2 + [ - p3_6_0 * f3_6_0_1_2 - p3_6_1 * f3_6_1_1_2
   - p3_6_2 * f3_6_2_1_2 ] = 0
 qc1264: qft4_6_0_0 + [ - pf4_6_1_0 * pf4_6_1_1 ] = 0
 qc1265: qft4_6_0_1 + [ - pf4_6_1_0 * pf4_6_1_2 ] = 0
 qc1266: qft4_6_0_2 + [ - pf4_6_1_1 * pf4_6_1_2 ] = 0
 qc1267: p4_6_0 - pf4_6_1_0 - pf4_6_1_1 - pf4_6_1_2 + 2 qft4_6_0_0
   + 2 qft4_6_0_1 + 2 qft4_6_0_2 + [ - 4 pf4_6_1_2 * qft4_6_0_0 ] = 0
 qc1268: p4_5_1 - qft4_6_0_0 - qft4_6_0_1 - qft4_6_0_2 + [
   2 pf4_6_1_2 * qft4_6_0_0 ] = 0
 qc1269: pf4_7_1_0 + [ - p3_7_0 * f3_7_0_1_0 - p3_7_1 * f3_7_1_1_0
   - p3_7_2 * f3_7_2_1_0 ] = 0
 qc1270: pf4_7_1_1 + [ - p3_7_0 * f3_7_0_1_1 - p3_7_1 * f3_7_1_1_1
   - p3_7_2 * f3_7_2_1_1 ] = 0
 qc1271: pf4_7_1_2 + [ - p3_7_0 * f3_7_0_1_2 - p3_7_1 * f3_7_1_1_2
   - p3_7_2 * f3_7_2_1_2 ] = 0
 qc1272: qft4_7_0_0 + [ - pf4_7_1_0 * pf4_7_1_1 ] = 0
 qc1273: qft4_7_0_1 + [ - pf4_7_1_0 * pf4_7_1_2 ] = 0
 qc1274: qft4_7_0_2 + [ - pf4_7_1_1 * pf4_7_1_2 ] = 0
 qc1275: p4_7_0 - pf4_7_1_0 - pf4_7_1_1 - pf4_7_1_2 + 2 qft4_7_0_0
   + 2 qft4_7_0_1 + 2 qft4_7_0_2 + [ - 4 pf4_7_1_2 * qft4_7_0_0 ] = 0
 qc1276: p4_6_1 - qft4_7_0_0 - qft4_7_0_1 - qft4_7_0_2 + [
   2 pf4_7_1_2 * qft4_7_0_0 ] = 0
 qc1277: pf4_8_1_0 + [ - p3_8_0 * f3_8_0_1_0 - p3_8_1 * f3_8_1_1_0
   - p3_8_2 * f3_8_2_1_0 ] = 0
 qc1278: pf4_8_1_1 + [ - p3_8_0 * f3_8_0_1_1 - p3_8_1 * f3_8_1_1_1
   - p3_8_2 * f3_8_2_1_1 ] = 0
 qc1279: pf4_8_1_2 + [ - p3_8_0 * f3_8_0_1_2 - p3_8_1 * f3_8_1_1_2
   - p3_8_2 * f3_8_2_1_2 ] = 0
 qc1280: qft4_8_0_0 + [ - pf4_8_1_0 * pf4_8_1_1 ] = 0
 qc1281: qft4_8_0_1 + [ - pf4_8_1_0 * pf4_8_1_2 ] = 0
 qc1282: qft4_8_0_2 + [ - pf4_8_1_1 * pf4_8_1_2 ] = 0
 qc1283: p4_8_0 - pf4_8_1_0 - pf4_8_1_1 - pf4_8_1_2 + 2 qft4_8_0_0
   + 2 qft4_8_0_1 + 2 qft4_8_0_2 + [ - 4 pf4_8_1_2 * qft4_8_0_0 ] = 0
 qc1284: p4_7_1 - qft4_8_0_0 - qft4_8_0_1 - qft4_8_0_2 + [
   2 pf4_8_1_2 * qft4_8_0_0 ] = 0
 qc1285: pf4_9_1_0 + [ - p3_9_0 * f3_9_0_1_0 - p3_9_1 * f3_9_1_1_0
   - p3_9_2 * f3_9_2_1_0 ] = 0
 qc1286: pf4_9_1_1 + [ - p3_9_0 * f3_9_0_1_1 - p3_9_1 * f3_9_1_1_1
   - p3_9_2 * f3_9_2_1_1 ] = 0
 qc1287: pf4_9_1_2 + [ - p3_9_0 * f3_9_0_1_2 - p3_9_1 * f3_9_1_1_2
   - p3_9_2 * f3_9_2_1_2 ] = 0
 qc1288: qft4_9_0_0 + [ - pf4_9_1_0 * pf4_9_1_1 ] = 0
 qc1289: qft4_9_0_1 + [ - pf4_9_1_0 * pf4_9_1_2 ] = 0
 qc1290: qft4_9_0_2 + [ - pf4_9_1_1 * pf4_9_1_2 ] = 0
 qc1291: p4_9_0 - pf4_9_1_0 - pf4_9_1_1 - pf4_9_1_2 + 2 qft4_9_0_0
   + 2 qft4_9_0_1 + 2 qft4_9_0_2 + [ - 4 pf4_9_1_2 * qft4_9_0_0 ] = 0
 qc1292: p4_8_1 - qft4_9_0_0 - qft4_9_0_1 - qft4_9_0_2 + [
   2 pf4_9_1_2 * qft4_9_0_0 ] = 0
 qc1293: pf4_10_1_0 + [ - p3_10_0 * f3_10_0_1_0 - p3_10_1 * f3_10_1_1_0
   - p3_10_2 * f3_10_2_1_0 ] = 0
 qc1294: pf4_10_1_1 + [ - p3_10_0 * f3_10_0_1_1 - p3_10_1 * f3_10_1_1_1
   - p3_10_2 * f3_10_2_1_1 ] = 0
 qc1295: pf4_10_1_2 + [ - p3_10_0 * f3_10_0_1_2 - p3_10_1 * f3_10_1_1_2
   - p3_10_2 * f3_10_2_1_2 ] = 0
 qc1296: qft4_10_0_0 + [ - pf4_10_1_0 * pf4_10_1_1 ] = 0
 qc1297: qft4_10_0_1 + [ - pf4_10_1_0 * pf4_10_1_2 ] = 0
 qc1298: qft4_10_0_2 + [ - pf4_10_1_1 * pf4_10_1_2 ] = 0
 qc1299: p4_10_0 - pf4_10_1_0 - pf4_10_1_1 - pf4_10_1_2 + 2 qft4_10_0_0
   + 2 qft4_10_0_1 + 2 qft4_10_0_2 + [ - 4 pf4_10_1_2 * qft4_10_0_0 ] = 0
 qc1300: p4_9_1 - qft4_10_0_0 - qft4_10_0_1 - qft4_10_0_2 + [
   2 pf4_10_1_2 * qft4_10_0_0 ] = 0
 qc1301: pf4_11_1_0 + [ - p3_11_0 * f3_11_0_1_0 - p3_11_1 * f3_11_1_1_0
   - p3_11_2 * f3_11_2_1_0 ] = 0
 qc1302: pf4_11_1_1 + [ - p3_11_0 * f3_11_0_1_1 - p3_11_1 * f3_11_1_1_1
   - p3_11_2 * f3_11_2_1_1 ] = 0
 qc1303: pf4_11_1_2 + [ - p3_11_0 * f3_11_0_1_2 - p3_11_1 * f3_11_1_1_2
   - p3_11_2 * f3_11_2_1_2 ] = 0
 qc1304: qft4_11_0_0 + [ - pf4_11_1_0 * pf4_11_1_1 ] = 0
 qc1305: qft4_11_0_1 + [ - pf4_11_1_0 * pf4_11_1_2 ] = 0
 qc1306: qft4_11_0_2 + [ - pf4_11_1_1 * pf4_11_1_2 ] = 0
 qc1307: p4_11_0 - pf4_11_1_0 - pf4_11_1_1 - pf4_11_1_2 + 2 qft4_11_0_0
   + 2 qft4_11_0_1 + 2 qft4_11_0_2 + [ - 4 pf4_11_1_2 * qft4_11_0_0 ] = 0
 qc1308: p4_10_1 - qft4_11_0_0 - qft4_11_0_1 - qft4_11_0_2 + [
   2 pf4_11_1_2 * qft4_11_0_0 ] = 0
 qc1309: pf4_12_1_0 + [ - p3_12_0 * f3_12_0_1_0 - p3_12_1 * f3_12_1_1_0
   - p3_12_2 * f3_12_2_1_0 ] = 0
 qc1310: pf4_12_1_1 + [ - p3_12_0 * f3_12_0_1_1 - p3_12_1 * f3_12_1_1_1
   - p3_12_2 * f3_12_2_1_1 ] = 0
 qc1311: pf4_12_1_2 + [ - p3_12_0 * f3_12_0_1_2 - p3_12_1 * f3_12_1_1_2
   - p3_12_2 * f3_12_2_1_2 ] = 0
 qc1312: qft4_12_0_0 + [ - pf4_12_1_0 * pf4_12_1_1 ] = 0
 qc1313: qft4_12_0_1 + [ - pf4_12_1_0 * pf4_12_1_2 ] = 0
 qc1314: qft4_12_0_2 + [ - pf4_12_1_1 * pf4_12_1_2 ] = 0
 qc1315: p4_12_0 - pf4_12_1_0 - pf4_12_1_1 - pf4_12_1_2 + 2 qft4_12_0_0
   + 2 qft4_12_0_1 + 2 qft4_12_0_2 + [ - 4 pf4_12_1_2 * qft4_12_0_0 ] = 0
 qc1316: p4_11_1 - qft4_12_0_0 - qft4_12_0_1 - qft4_12_0_2 + [
   2 pf4_12_1_2 * qft4_12_0_0 ] = 0
 qc1317: pf4_13_1_0 + [ - p3_13_0 * f3_13_0_1_0 - p3_13_1 * f3_13_1_1_0
   - p3_13_2 * f3_13_2_1_0 ] = 0
 qc1318: pf4_13_1_1 + [ - p3_13_0 * f3_13_0_1_1 - p3_13_1 * f3_13_1_1_1
   - p3_13_2 * f3_13_2_1_1 ] = 0
 qc1319: pf4_13_1_2 + [ - p3_13_0 * f3_13_0_1_2 - p3_13_1 * f3_13_1_1_2
   - p3_13_2 * f3_13_2_1_2 ] = 0
 qc1320: qft4_13_0_0 + [ - pf4_13_1_0 * pf4_13_1_1 ] = 0
 qc1321: qft4_13_0_1 + [ - pf4_13_1_0 * pf4_13_1_2 ] = 0
 qc1322: qft4_13_0_2 + [ - pf4_13_1_1 * pf4_13_1_2 ] = 0
 qc1323: p4_13_0 - pf4_13_1_0 - pf4_13_1_1 - pf4_13_1_2 + 2 qft4_13_0_0
   + 2 qft4_13_0_1 + 2 qft4_13_0_2 + [ - 4 pf4_13_1_2 * qft4_13_0_0 ] = 0
 qc1324: p4_12_1 - qft4_13_0_0 - qft4_13_0_1 - qft4_13_0_2 + [
   2 pf4_13_1_2 * qft4_13_0_0 ] = 0
 qc1325: - p4_14_0 + [ p3_14_0 * rb3_14_0_0 + p3_14_1 * rb3_14_1_0
   + p3_14_2 * rb3_14_2_0 + p3_14_3 * rb3_14_3_0 ] = 0
 qc1326: pf4_14_1_0 + [ - p3_14_0 * f3_14_0_1_0 - p3_14_1 * f3_14_1_1_0
   - p3_14_2 * f3_14_2_1_0 - p3_14_3 * f3_14_3_1_0 ] = 0
 qc1327: pf4_14_1_1 + [ - p3_14_0 * f3_14_0_1_1 - p3_14_1 * f3_14_1_1_1
   - p3_14_2 * f3_14_2_1_1 - p3_14_3 * f3_14_3_1_1 ] = 0
 qc1328: pf4_14_1_2 + [ - p3_14_0 * f3_14_0_1_2 - p3_14_1 * f3_14_1_1_2
   - p3_14_2 * f3_14_2_1_2 - p3_14_3 * f3_14_3_1_2 ] = 0
 qc1329: qft4_14_0_0 + [ - pf4_14_1_0 * pf4_14_1_1 ] = 0
 qc1330: qft4_14_0_1 + [ - pf4_14_1_0 * pf4_14_1_2 ] = 0
 qc1331: qft4_14_0_2 + [ - pf4_14_1_1 * pf4_14_1_2 ] = 0
 qc1332: p4_14_1 - pf4_14_1_0 - pf4_14_1_1 - pf4_14_1_2 + 2 qft4_14_0_0
   + 2 qft4_14_0_1 + 2 qft4_14_0_2 + [ - 4 pf4_14_1_2 * qft4_14_0_0 ] = 0
 qc1333: p4_13_1 - qft4_14_0_0 - qft4_14_0_1 - qft4_14_0_2 + [
   2 pf4_14_1_2 * qft4_14_0_0 ] = 0
 qc1334: - p4_15_0 + [ p3_15_0 * rb3_15_0_0 + p3_15_1 * rb3_15_1_0 ] = 0
 qc1335: - p4_15_1 + [ p3_15_0 * rb3_15_0_1 + p3_15_1 * rb3_15_1_1 ] = 0
 qc1336: p4a4_16_1_0 + [ - p3_16_0 * a4c3_16_0_1_0
   - p3_16_1 * a4c3_16_1_1_0 - p3_16_2 * a4c3_16_2_1_0
   - p3_16_3 * a4c3_16_3_1_0 ] = 0
 qc1337: p4a4_16_1_1 + [ - p3_16_0 * a4c3_16_0_1_1
   - p3_16_1 * a4c3_16_1_1_1 - p3_16_2 * a4c3_16_2_1_1
   - p3_16_3 * a4c3_16_3_1_1 ] = 0
 qc1338: p4a4_16_1_2 + [ - p3_16_0 * a4c3_16_0_1_2
   - p3_16_1 * a4c3_16_1_1_2 - p3_16_2 * a4c3_16_2_1_2
   - p3_16_3 * a4c3_16_3_1_2 ] = 0
 qc1339: p4a4_16_1_3 + [ - p3_16_0 * a4c3_16_0_1_3
   - p3_16_1 * a4c3_16_1_1_3 - p3_16_2 * a4c3_16_2_1_3
   - p3_16_3 * a4c3_16_3_1_3 ] = 0
 qc1340: q4t4_16_0_0 + [ - p4a4_16_1_2 * p4a4_16_1_3 ] = 0
 qc1341: q4t4_16_0_1 + [ - p4a4_16_1_0 * p4a4_16_1_3 ] = 0
 qc1342: q4t4_16_0_2 + [ - p4a4_16_1_0 * p4a4_16_1_1 ] = 0
 qc1343: q4t4_16_0_3 + [ - p4a4_16_1_1 * p4a4_16_1_3 ] = 0
 qc1344: q4t4_16_0_4 + [ - p4a4_16_1_1 * p4a4_16_1_2 ] = 0
 qc1345: p4_16_0 - p4a4_16_1_0 - p4a4_16_1_1 - q4t4_16_0_0 - 2 q4t4_16_0_1
   - q4t4_16_0_2 + [ p4a4_16_1_0 * q4t4_16_0_0 + p4a4_16_1_1 * q4t4_16_0_0
   + 2 p4a4_16_1_3 * q4t4_16_0_2 - q4t4_16_0_1 * q4t4_16_0_4 ] = 0
 qc1346: p4_16_1 - p4a4_16_1_2 - p4a4_16_1_3 + q4t4_16_0_0 - q4t4_16_0_2
   + [ p4a4_16_1_2 * q4t4_16_0_2 + p4a4_16_1_3 * q4t4_16_0_2
   - q4t4_16_0_0 * q4t4_16_0_2 ] = 0
 qc1347: med4a4_16_0 + [ - p4a4_16_1_0 * q4t4_16_0_3
   - p4a4_16_1_2 * q4t4_16_0_2 - p4a4_16_1_2 * q4t4_16_0_3
   - p4a4_16_1_3 * q4t4_16_0_2 + 2 q4t4_16_0_0 * q4t4_16_0_2 ] = 0
 qc1348: p3a4_17_1_0 + [ - p3_17_0 * a3c3_17_0_1_0
   - p3_17_1 * a3c3_17_1_1_0 - p3_17_2 * a3c3_17_2_1_0 ] = 0
 qc1349: p3a4_17_1_1 + [ - p3_17_0 * a3c3_17_0_1_1
   - p3_17_1 * a3c3_17_1_1_1 - p3_17_2 * a3c3_17_2_1_1 ] = 0
 qc1350: p3a4_17_1_2 + [ - p3_17_0 * a3c3_17_0_1_2
   - p3_17_1 * a3c3_17_1_1_2 - p3_17_2 * a3c3_17_2_1_2 ] = 0
 qc1351: q3t4_17_0_0 + [ - p3a4_17_1_0 * p3a4_17_1_1 ] = 0
 qc1352: p4_17_0 - p3a4_17_1_0 - p3a4_17_1_1 + q3t4_17_0_0 + [ ] = 0
 qc1353: p4_17_1 - p3a4_17_1_2 - q3t4_17_0_0 + [ p3a4_17_1_2 * q3t4_17_0_0
   ] = 0
 qc1354: med3a4_17_0 + [ - p3a4_17_1_2 * q3t4_17_0_0 ] = 0
 qc1355: p3a4_18_1_0 + [ - p3_18_0 * a3c3_18_0_1_0
   - p3_18_1 * a3c3_18_1_1_0 - p3_18_2 * a3c3_18_2_1_0 ] = 0
 qc1356: p3a4_18_1_1 + [ - p3_18_0 * a3c3_18_0_1_1
   - p3_18_1 * a3c3_18_1_1_1 - p3_18_2 * a3c3_18_2_1_1 ] = 0
 qc1357: p3a4_18_1_2 + [ - p3_18_0 * a3c3_18_0_1_2
   - p3_18_1 * a3c3_18_1_1_2 - p3_18_2 * a3c3_18_2_1_2 ] = 0
 qc1358: q3t4_18_0_0 + [ - p3a4_18_1_0 * p3a4_18_1_1 ] = 0
 qc1359: p4_18_0 - p3a4_18_1_0 - p3a4_18_1_1 + q3t4_18_0_0 + [ ] = 0
 qc1360: p4_18_1 - p3a4_18_1_2 - q3t4_18_0_0 + [ p3a4_18_1_2 * q3t4_18_0_0
   ] = 0
 qc1361: med3a4_18_0 + [ - p3a4_18_1_2 * q3t4_18_0_0 ] = 0
 qc1362: p4a4_19_1_0 + [ - p3_19_0 * a4c3_19_0_1_0
   - p3_19_1 * a4c3_19_1_1_0 - p3_19_2 * a4c3_19_2_1_0
   - p3_19_3 * a4c3_19_3_1_0 ] = 0
 qc1363: p4a4_19_1_1 + [ - p3_19_0 * a4c3_19_0_1_1
   - p3_19_1 * a4c3_19_1_1_1 - p3_19_2 * a4c3_19_2_1_1
   - p3_19_3 * a4c3_19_3_1_1 ] = 0
 qc1364: p4a4_19_1_2 + [ - p3_19_0 * a4c3_19_0_1_2
   - p3_19_1 * a4c3_19_1_1_2 - p3_19_2 * a4c3_19_2_1_2
   - p3_19_3 * a4c3_19_3_1_2 ] = 0
 qc1365: p4a4_19_1_3 + [ - p3_19_0 * a4c3_19_0_1_3
   - p3_19_1 * a4c3_19_1_1_3 - p3_19_2 * a4c3_19_2_1_3
   - p3_19_3 * a4c3_19_3_1_3 ] = 0
 qc1366: q4t4_19_0_0 + [ - p4a4_19_1_2 * p4a4_19_1_3 ] = 0
 qc1367: q4t4_19_0_1 + [ - p4a4_19_1_0 * p4a4_19_1_3 ] = 0
 qc1368: q4t4_19_0_2 + [ - p4a4_19_1_0 * p4a4_19_1_1 ] = 0
 qc1369: q4t4_19_0_3 + [ - p4a4_19_1_1 * p4a4_19_1_3 ] = 0
 qc1370: q4t4_19_0_4 + [ - p4a4_19_1_1 * p4a4_19_1_2 ] = 0
 qc1371: p4_19_0 - p4a4_19_1_0 - p4a4_19_1_1 - q4t4_19_0_0 - 2 q4t4_19_0_1
   - q4t4_19_0_2 + [ p4a4_19_1_0 * q4t4_19_0_0 + p4a4_19_1_1 * q4t4_19_0_0
   + 2 p4a4_19_1_3 * q4t4_19_0_2 - q4t4_19_0_1 * q4t4_19_0_4 ] = 0
 qc1372: p4_19_1 - p4a4_19_1_2 - p4a4_19_1_3 + q4t4_19_0_0 - q4t4_19_0_2
   + [ p4a4_19_1_2 * q4t4_19_0_2 + p4a4_19_1_3 * q4t4_19_0_2
   - q4t4_19_0_0 * q4t4_19_0_2 ] = 0
 qc1373: med4a4_19_0 + [ - p4a4_19_1_0 * q4t4_19_0_3
   - p4a4_19_1_2 * q4t4_19_0_2 - p4a4_19_1_2 * q4t4_19_0_3
   - p4a4_19_1_3 * q4t4_19_0_2 + 2 q4t4_19_0_0 * q4t4_19_0_2 ] = 0
 qc1374: p4a4_20_1_0 + [ - p3_20_0 * a4c3_20_0_1_0
   - p3_20_1 * a4c3_20_1_1_0 - p3_20_2 * a4c3_20_2_1_0
   - p3_20_3 * a4c3_20_3_1_0 ] = 0
 qc1375: p4a4_20_1_1 + [ - p3_20_0 * a4c3_20_0_1_1
   - p3_20_1 * a4c3_20_1_1_1 - p3_20_2 * a4c3_20_2_1_1
   - p3_20_3 * a4c3_20_3_1_1 ] = 0
 qc1376: p4a4_20_1_2 + [ - p3_20_0 * a4c3_20_0_1_2
   - p3_20_1 * a4c3_20_1_1_2 - p3_20_2 * a4c3_20_2_1_2
   - p3_20_3 * a4c3_20_3_1_2 ] = 0
 qc1377: p4a4_20_1_3 + [ - p3_20_0 * a4c3_20_0_1_3
   - p3_20_1 * a4c3_20_1_1_3 - p3_20_2 * a4c3_20_2_1_3
   - p3_20_3 * a4c3_20_3_1_3 ] = 0
 qc1378: q4t4_20_0_0 + [ - p4a4_20_1_2 * p4a4_20_1_3 ] = 0
 qc1379: q4t4_20_0_1 + [ - p4a4_20_1_0 * p4a4_20_1_3 ] = 0
 qc1380: q4t4_20_0_2 + [ - p4a4_20_1_0 * p4a4_20_1_1 ] = 0
 qc1381: q4t4_20_0_3 + [ - p4a4_20_1_1 * p4a4_20_1_3 ] = 0
 qc1382: q4t4_20_0_4 + [ - p4a4_20_1_1 * p4a4_20_1_2 ] = 0
 qc1383: p4_20_0 - p4a4_20_1_0 - p4a4_20_1_1 - q4t4_20_0_0 - 2 q4t4_20_0_1
   - q4t4_20_0_2 + [ p4a4_20_1_0 * q4t4_20_0_0 + p4a4_20_1_1 * q4t4_20_0_0
   + 2 p4a4_20_1_3 * q4t4_20_0_2 - q4t4_20_0_1 * q4t4_20_0_4 ] = 0
 qc1384: p4_20_1 - p4a4_20_1_2 - p4a4_20_1_3 + q4t4_20_0_0 - q4t4_20_0_2
   + [ p4a4_20_1_2 * q4t4_20_0_2 + p4a4_20_1_3 * q4t4_20_0_2
   - q4t4_20_0_0 * q4t4_20_0_2 ] = 0
 qc1385: med4a4_20_0 + [ - p4a4_20_1_0 * q4t4_20_0_3
   - p4a4_20_1_2 * q4t4_20_0_2 - p4a4_20_1_2 * q4t4_20_0_3
   - p4a4_20_1_3 * q4t4_20_0_2 + 2 q4t4_20_0_0 * q4t4_20_0_2 ] = 0
 qc1386: p4a4_21_1_0 + [ - p3_21_0 * a4c3_21_0_1_0
   - p3_21_1 * a4c3_21_1_1_0 - p3_21_2 * a4c3_21_2_1_0
   - p3_21_3 * a4c3_21_3_1_0 ] = 0
 qc1387: p4a4_21_1_1 + [ - p3_21_0 * a4c3_21_0_1_1
   - p3_21_1 * a4c3_21_1_1_1 - p3_21_2 * a4c3_21_2_1_1
   - p3_21_3 * a4c3_21_3_1_1 ] = 0
 qc1388: p4a4_21_1_2 + [ - p3_21_0 * a4c3_21_0_1_2
   - p3_21_1 * a4c3_21_1_1_2 - p3_21_2 * a4c3_21_2_1_2
   - p3_21_3 * a4c3_21_3_1_2 ] = 0
 qc1389: p4a4_21_1_3 + [ - p3_21_0 * a4c3_21_0_1_3
   - p3_21_1 * a4c3_21_1_1_3 - p3_21_2 * a4c3_21_2_1_3
   - p3_21_3 * a4c3_21_3_1_3 ] = 0
 qc1390: q4t4_21_0_0 + [ - p4a4_21_1_2 * p4a4_21_1_3 ] = 0
 qc1391: q4t4_21_0_1 + [ - p4a4_21_1_0 * p4a4_21_1_3 ] = 0
 qc1392: q4t4_21_0_2 + [ - p4a4_21_1_0 * p4a4_21_1_1 ] = 0
 qc1393: q4t4_21_0_3 + [ - p4a4_21_1_1 * p4a4_21_1_3 ] = 0
 qc1394: q4t4_21_0_4 + [ - p4a4_21_1_1 * p4a4_21_1_2 ] = 0
 qc1395: p4_21_0 - p4a4_21_1_0 - p4a4_21_1_1 - q4t4_21_0_0 - 2 q4t4_21_0_1
   - q4t4_21_0_2 + [ p4a4_21_1_0 * q4t4_21_0_0 + p4a4_21_1_1 * q4t4_21_0_0
   + 2 p4a4_21_1_3 * q4t4_21_0_2 - q4t4_21_0_1 * q4t4_21_0_4 ] = 0
 qc1396: p4_21_1 - p4a4_21_1_2 - p4a4_21_1_3 + q4t4_21_0_0 - q4t4_21_0_2
   + [ p4a4_21_1_2 * q4t4_21_0_2 + p4a4_21_1_3 * q4t4_21_0_2
   - q4t4_21_0_0 * q4t4_21_0_2 ] = 0
 qc1397: med4a4_21_0 + [ - p4a4_21_1_0 * q4t4_21_0_3
   - p4a4_21_1_2 * q4t4_21_0_2 - p4a4_21_1_2 * q4t4_21_0_3
   - p4a4_21_1_3 * q4t4_21_0_2 + 2 q4t4_21_0_0 * q4t4_21_0_2 ] = 0
 qc1398: p4a4_22_1_0 + [ - p3_22_0 * a4c3_22_0_1_0
   - p3_22_1 * a4c3_22_1_1_0 - p3_22_2 * a4c3_22_2_1_0
   - p3_22_3 * a4c3_22_3_1_0 ] = 0
 qc1399: p4a4_22_1_1 + [ - p3_22_0 * a4c3_22_0_1_1
   - p3_22_1 * a4c3_22_1_1_1 - p3_22_2 * a4c3_22_2_1_1
   - p3_22_3 * a4c3_22_3_1_1 ] = 0
 qc1400: p4a4_22_1_2 + [ - p3_22_0 * a4c3_22_0_1_2
   - p3_22_1 * a4c3_22_1_1_2 - p3_22_2 * a4c3_22_2_1_2
   - p3_22_3 * a4c3_22_3_1_2 ] = 0
 qc1401: p4a4_22_1_3 + [ - p3_22_0 * a4c3_22_0_1_3
   - p3_22_1 * a4c3_22_1_1_3 - p3_22_2 * a4c3_22_2_1_3
   - p3_22_3 * a4c3_22_3_1_3 ] = 0
 qc1402: q4t4_22_0_0 + [ - p4a4_22_1_2 * p4a4_22_1_3 ] = 0
 qc1403: q4t4_22_0_1 + [ - p4a4_22_1_0 * p4a4_22_1_3 ] = 0
 qc1404: q4t4_22_0_2 + [ - p4a4_22_1_0 * p4a4_22_1_1 ] = 0
 qc1405: q4t4_22_0_3 + [ - p4a4_22_1_1 * p4a4_22_1_3 ] = 0
 qc1406: q4t4_22_0_4 + [ - p4a4_22_1_1 * p4a4_22_1_2 ] = 0
 qc1407: p4_22_0 - p4a4_22_1_0 - p4a4_22_1_1 - q4t4_22_0_0 - 2 q4t4_22_0_1
   - q4t4_22_0_2 + [ p4a4_22_1_0 * q4t4_22_0_0 + p4a4_22_1_1 * q4t4_22_0_0
   + 2 p4a4_22_1_3 * q4t4_22_0_2 - q4t4_22_0_1 * q4t4_22_0_4 ] = 0
 qc1408: p4_22_1 - p4a4_22_1_2 - p4a4_22_1_3 + q4t4_22_0_0 - q4t4_22_0_2
   + [ p4a4_22_1_2 * q4t4_22_0_2 + p4a4_22_1_3 * q4t4_22_0_2
   - q4t4_22_0_0 * q4t4_22_0_2 ] = 0
 qc1409: med4a4_22_0 + [ - p4a4_22_1_0 * q4t4_22_0_3
   - p4a4_22_1_2 * q4t4_22_0_2 - p4a4_22_1_2 * q4t4_22_0_3
   - p4a4_22_1_3 * q4t4_22_0_2 + 2 q4t4_22_0_0 * q4t4_22_0_2 ] = 0
 qc1410: p4a4_23_1_0 + [ - p3_23_0 * a4c3_23_0_1_0
   - p3_23_1 * a4c3_23_1_1_0 - p3_23_2 * a4c3_23_2_1_0
   - p3_23_3 * a4c3_23_3_1_0 ] = 0
 qc1411: p4a4_23_1_1 + [ - p3_23_0 * a4c3_23_0_1_1
   - p3_23_1 * a4c3_23_1_1_1 - p3_23_2 * a4c3_23_2_1_1
   - p3_23_3 * a4c3_23_3_1_1 ] = 0
 qc1412: p4a4_23_1_2 + [ - p3_23_0 * a4c3_23_0_1_2
   - p3_23_1 * a4c3_23_1_1_2 - p3_23_2 * a4c3_23_2_1_2
   - p3_23_3 * a4c3_23_3_1_2 ] = 0
 qc1413: p4a4_23_1_3 + [ - p3_23_0 * a4c3_23_0_1_3
   - p3_23_1 * a4c3_23_1_1_3 - p3_23_2 * a4c3_23_2_1_3
   - p3_23_3 * a4c3_23_3_1_3 ] = 0
 qc1414: q4t4_23_0_0 + [ - p4a4_23_1_2 * p4a4_23_1_3 ] = 0
 qc1415: q4t4_23_0_1 + [ - p4a4_23_1_0 * p4a4_23_1_3 ] = 0
 qc1416: q4t4_23_0_2 + [ - p4a4_23_1_0 * p4a4_23_1_1 ] = 0
 qc1417: q4t4_23_0_3 + [ - p4a4_23_1_1 * p4a4_23_1_3 ] = 0
 qc1418: q4t4_23_0_4 + [ - p4a4_23_1_1 * p4a4_23_1_2 ] = 0
 qc1419: p4_23_0 - p4a4_23_1_0 - p4a4_23_1_1 - q4t4_23_0_0 - 2 q4t4_23_0_1
   - q4t4_23_0_2 + [ p4a4_23_1_0 * q4t4_23_0_0 + p4a4_23_1_1 * q4t4_23_0_0
   + 2 p4a4_23_1_3 * q4t4_23_0_2 - q4t4_23_0_1 * q4t4_23_0_4 ] = 0
 qc1420: p4_23_1 - p4a4_23_1_2 - p4a4_23_1_3 + q4t4_23_0_0 - q4t4_23_0_2
   + [ p4a4_23_1_2 * q4t4_23_0_2 + p4a4_23_1_3 * q4t4_23_0_2
   - q4t4_23_0_0 * q4t4_23_0_2 ] = 0
 qc1421: med4a4_23_0 + [ - p4a4_23_1_0 * q4t4_23_0_3
   - p4a4_23_1_2 * q4t4_23_0_2 - p4a4_23_1_2 * q4t4_23_0_3
   - p4a4_23_1_3 * q4t4_23_0_2 + 2 q4t4_23_0_0 * q4t4_23_0_2 ] = 0
 qc1422: p4a4_24_1_0 + [ - p3_24_0 * a4c3_24_0_1_0
   - p3_24_1 * a4c3_24_1_1_0 - p3_24_2 * a4c3_24_2_1_0
   - p3_24_3 * a4c3_24_3_1_0 ] = 0
 qc1423: p4a4_24_1_1 + [ - p3_24_0 * a4c3_24_0_1_1
   - p3_24_1 * a4c3_24_1_1_1 - p3_24_2 * a4c3_24_2_1_1
   - p3_24_3 * a4c3_24_3_1_1 ] = 0
 qc1424: p4a4_24_1_2 + [ - p3_24_0 * a4c3_24_0_1_2
   - p3_24_1 * a4c3_24_1_1_2 - p3_24_2 * a4c3_24_2_1_2
   - p3_24_3 * a4c3_24_3_1_2 ] = 0
 qc1425: p4a4_24_1_3 + [ - p3_24_0 * a4c3_24_0_1_3
   - p3_24_1 * a4c3_24_1_1_3 - p3_24_2 * a4c3_24_2_1_3
   - p3_24_3 * a4c3_24_3_1_3 ] = 0
 qc1426: q4t4_24_0_0 + [ - p4a4_24_1_2 * p4a4_24_1_3 ] = 0
 qc1427: q4t4_24_0_1 + [ - p4a4_24_1_0 * p4a4_24_1_3 ] = 0
 qc1428: q4t4_24_0_2 + [ - p4a4_24_1_0 * p4a4_24_1_1 ] = 0
 qc1429: q4t4_24_0_3 + [ - p4a4_24_1_1 * p4a4_24_1_3 ] = 0
 qc1430: q4t4_24_0_4 + [ - p4a4_24_1_1 * p4a4_24_1_2 ] = 0
 qc1431: p4_24_0 - p4a4_24_1_0 - p4a4_24_1_1 - q4t4_24_0_0 - 2 q4t4_24_0_1
   - q4t4_24_0_2 + [ p4a4_24_1_0 * q4t4_24_0_0 + p4a4_24_1_1 * q4t4_24_0_0
   + 2 p4a4_24_1_3 * q4t4_24_0_2 - q4t4_24_0_1 * q4t4_24_0_4 ] = 0
 qc1432: p4_24_1 - p4a4_24_1_2 - p4a4_24_1_3 + q4t4_24_0_0 - q4t4_24_0_2
   + [ p4a4_24_1_2 * q4t4_24_0_2 + p4a4_24_1_3 * q4t4_24_0_2
   - q4t4_24_0_0 * q4t4_24_0_2 ] = 0
 qc1433: med4a4_24_0 + [ - p4a4_24_1_0 * q4t4_24_0_3
   - p4a4_24_1_2 * q4t4_24_0_2 - p4a4_24_1_2 * q4t4_24_0_3
   - p4a4_24_1_3 * q4t4_24_0_2 + 2 q4t4_24_0_0 * q4t4_24_0_2 ] = 0
 qc1434: p4a4_25_1_0 + [ - p3_25_0 * a4c3_25_0_1_0
   - p3_25_1 * a4c3_25_1_1_0 - p3_25_2 * a4c3_25_2_1_0
   - p3_25_3 * a4c3_25_3_1_0 ] = 0
 qc1435: p4a4_25_1_1 + [ - p3_25_0 * a4c3_25_0_1_1
   - p3_25_1 * a4c3_25_1_1_1 - p3_25_2 * a4c3_25_2_1_1
   - p3_25_3 * a4c3_25_3_1_1 ] = 0
 qc1436: p4a4_25_1_2 + [ - p3_25_0 * a4c3_25_0_1_2
   - p3_25_1 * a4c3_25_1_1_2 - p3_25_2 * a4c3_25_2_1_2
   - p3_25_3 * a4c3_25_3_1_2 ] = 0
 qc1437: p4a4_25_1_3 + [ - p3_25_0 * a4c3_25_0_1_3
   - p3_25_1 * a4c3_25_1_1_3 - p3_25_2 * a4c3_25_2_1_3
   - p3_25_3 * a4c3_25_3_1_3 ] = 0
 qc1438: q4t4_25_0_0 + [ - p4a4_25_1_2 * p4a4_25_1_3 ] = 0
 qc1439: q4t4_25_0_1 + [ - p4a4_25_1_0 * p4a4_25_1_3 ] = 0
 qc1440: q4t4_25_0_2 + [ - p4a4_25_1_0 * p4a4_25_1_1 ] = 0
 qc1441: q4t4_25_0_3 + [ - p4a4_25_1_1 * p4a4_25_1_3 ] = 0
 qc1442: q4t4_25_0_4 + [ - p4a4_25_1_1 * p4a4_25_1_2 ] = 0
 qc1443: p4_25_0 - p4a4_25_1_0 - p4a4_25_1_1 - q4t4_25_0_0 - 2 q4t4_25_0_1
   - q4t4_25_0_2 + [ p4a4_25_1_0 * q4t4_25_0_0 + p4a4_25_1_1 * q4t4_25_0_0
   + 2 p4a4_25_1_3 * q4t4_25_0_2 - q4t4_25_0_1 * q4t4_25_0_4 ] = 0
 qc1444: p4_25_1 - p4a4_25_1_2 - p4a4_25_1_3 + q4t4_25_0_0 - q4t4_25_0_2
   + [ p4a4_25_1_2 * q4t4_25_0_2 + p4a4_25_1_3 * q4t4_25_0_2
   - q4t4_25_0_0 * q4t4_25_0_2 ] = 0
 qc1445: med4a4_25_0 + [ - p4a4_25_1_0 * q4t4_25_0_3
   - p4a4_25_1_2 * q4t4_25_0_2 - p4a4_25_1_2 * q4t4_25_0_3
   - p4a4_25_1_3 * q4t4_25_0_2 + 2 q4t4_25_0_0 * q4t4_25_0_2 ] = 0
 qc1446: - p4_26_0 + [ p3_26_0 * rb3_26_0_0 + p3_26_1 * rb3_26_1_0 ] = 0
 qc1447: - p4_26_1 + [ p3_26_0 * rb3_26_0_1 + p3_26_1 * rb3_26_1_1 ] = 0
 qc1448: p3a4_27_1_0 + [ - p3_27_0 * a3c3_27_0_1_0
   - p3_27_1 * a3c3_27_1_1_0 - p3_27_2 * a3c3_27_2_1_0 ] = 0
 qc1449: p3a4_27_1_1 + [ - p3_27_0 * a3c3_27_0_1_1
   - p3_27_1 * a3c3_27_1_1_1 - p3_27_2 * a3c3_27_2_1_1 ] = 0
 qc1450: p3a4_27_1_2 + [ - p3_27_0 * a3c3_27_0_1_2
   - p3_27_1 * a3c3_27_1_1_2 - p3_27_2 * a3c3_27_2_1_2 ] = 0
 qc1451: q3t4_27_0_0 + [ - p3a4_27_1_0 * p3a4_27_1_1 ] = 0
 qc1452: p4_27_0 - p3a4_27_1_0 - p3a4_27_1_1 + q3t4_27_0_0 + [ ] = 0
 qc1453: p4_27_1 - p3a4_27_1_2 - q3t4_27_0_0 + [ p3a4_27_1_2 * q3t4_27_0_0
   ] = 0
 qc1454: med3a4_27_0 + [ - p3a4_27_1_2 * q3t4_27_0_0 ] = 0
 qc1455: p4a4_28_1_0 + [ - p3_28_0 * a4c3_28_0_1_0
   - p3_28_1 * a4c3_28_1_1_0 - p3_28_2 * a4c3_28_2_1_0
   - p3_28_3 * a4c3_28_3_1_0 ] = 0
 qc1456: p4a4_28_1_1 + [ - p3_28_0 * a4c3_28_0_1_1
   - p3_28_1 * a4c3_28_1_1_1 - p3_28_2 * a4c3_28_2_1_1
   - p3_28_3 * a4c3_28_3_1_1 ] = 0
 qc1457: p4a4_28_1_2 + [ - p3_28_0 * a4c3_28_0_1_2
   - p3_28_1 * a4c3_28_1_1_2 - p3_28_2 * a4c3_28_2_1_2
   - p3_28_3 * a4c3_28_3_1_2 ] = 0
 qc1458: p4a4_28_1_3 + [ - p3_28_0 * a4c3_28_0_1_3
   - p3_28_1 * a4c3_28_1_1_3 - p3_28_2 * a4c3_28_2_1_3
   - p3_28_3 * a4c3_28_3_1_3 ] = 0
 qc1459: q4t4_28_0_0 + [ - p4a4_28_1_2 * p4a4_28_1_3 ] = 0
 qc1460: q4t4_28_0_1 + [ - p4a4_28_1_0 * p4a4_28_1_3 ] = 0
 qc1461: q4t4_28_0_2 + [ - p4a4_28_1_0 * p4a4_28_1_1 ] = 0
 qc1462: q4t4_28_0_3 + [ - p4a4_28_1_1 * p4a4_28_1_3 ] = 0
 qc1463: q4t4_28_0_4 + [ - p4a4_28_1_1 * p4a4_28_1_2 ] = 0
 qc1464: p4_28_0 - p4a4_28_1_0 - p4a4_28_1_1 - q4t4_28_0_0 - 2 q4t4_28_0_1
   - q4t4_28_0_2 + [ p4a4_28_1_0 * q4t4_28_0_0 + p4a4_28_1_1 * q4t4_28_0_0
   + 2 p4a4_28_1_3 * q4t4_28_0_2 - q4t4_28_0_1 * q4t4_28_0_4 ] = 0
 qc1465: p4_28_1 - p4a4_28_1_2 - p4a4_28_1_3 + q4t4_28_0_0 - q4t4_28_0_2
   + [ p4a4_28_1_2 * q4t4_28_0_2 + p4a4_28_1_3 * q4t4_28_0_2
   - q4t4_28_0_0 * q4t4_28_0_2 ] = 0
 qc1466: med4a4_28_0 + [ - p4a4_28_1_0 * q4t4_28_0_3
   - p4a4_28_1_2 * q4t4_28_0_2 - p4a4_28_1_2 * q4t4_28_0_3
   - p4a4_28_1_3 * q4t4_28_0_2 + 2 q4t4_28_0_0 * q4t4_28_0_2 ] = 0
 qc1467: p4a4_29_1_0 + [ - p3_29_0 * a4c3_29_0_1_0
   - p3_29_1 * a4c3_29_1_1_0 - p3_29_2 * a4c3_29_2_1_0
   - p3_29_3 * a4c3_29_3_1_0 ] = 0
 qc1468: p4a4_29_1_1 + [ - p3_29_0 * a4c3_29_0_1_1
   - p3_29_1 * a4c3_29_1_1_1 - p3_29_2 * a4c3_29_2_1_1
   - p3_29_3 * a4c3_29_3_1_1 ] = 0
 qc1469: p4a4_29_1_2 + [ - p3_29_0 * a4c3_29_0_1_2
   - p3_29_1 * a4c3_29_1_1_2 - p3_29_2 * a4c3_29_2_1_2
   - p3_29_3 * a4c3_29_3_1_2 ] = 0
 qc1470: p4a4_29_1_3 + [ - p3_29_0 * a4c3_29_0_1_3
   - p3_29_1 * a4c3_29_1_1_3 - p3_29_2 * a4c3_29_2_1_3
   - p3_29_3 * a4c3_29_3_1_3 ] = 0
 qc1471: q4t4_29_0_0 + [ - p4a4_29_1_2 * p4a4_29_1_3 ] = 0
 qc1472: q4t4_29_0_1 + [ - p4a4_29_1_0 * p4a4_29_1_3 ] = 0
 qc1473: q4t4_29_0_2 + [ - p4a4_29_1_0 * p4a4_29_1_1 ] = 0
 qc1474: q4t4_29_0_3 + [ - p4a4_29_1_1 * p4a4_29_1_3 ] = 0
 qc1475: q4t4_29_0_4 + [ - p4a4_29_1_1 * p4a4_29_1_2 ] = 0
 qc1476: p4_29_0 - p4a4_29_1_0 - p4a4_29_1_1 - q4t4_29_0_0 - 2 q4t4_29_0_1
   - q4t4_29_0_2 + [ p4a4_29_1_0 * q4t4_29_0_0 + p4a4_29_1_1 * q4t4_29_0_0
   + 2 p4a4_29_1_3 * q4t4_29_0_2 - q4t4_29_0_1 * q4t4_29_0_4 ] = 0
 qc1477: p4_29_1 - p4a4_29_1_2 - p4a4_29_1_3 + q4t4_29_0_0 - q4t4_29_0_2
   + [ p4a4_29_1_2 * q4t4_29_0_2 + p4a4_29_1_3 * q4t4_29_0_2
   - q4t4_29_0_0 * q4t4_29_0_2 ] = 0
 qc1478: med4a4_29_0 + [ - p4a4_29_1_0 * q4t4_29_0_3
   - p4a4_29_1_2 * q4t4_29_0_2 - p4a4_29_1_2 * q4t4_29_0_3
   - p4a4_29_1_3 * q4t4_29_0_2 + 2 q4t4_29_0_0 * q4t4_29_0_2 ] = 0
 qc1479: p3a4_30_1_0 + [ - p3_30_0 * a3c3_30_0_1_0
   - p3_30_1 * a3c3_30_1_1_0 - p3_30_2 * a3c3_30_2_1_0 ] = 0
 qc1480: p3a4_30_1_1 + [ - p3_30_0 * a3c3_30_0_1_1
   - p3_30_1 * a3c3_30_1_1_1 - p3_30_2 * a3c3_30_2_1_1 ] = 0
 qc1481: p3a4_30_1_2 + [ - p3_30_0 * a3c3_30_0_1_2
   - p3_30_1 * a3c3_30_1_1_2 - p3_30_2 * a3c3_30_2_1_2 ] = 0
 qc1482: q3t4_30_0_0 + [ - p3a4_30_1_0 * p3a4_30_1_1 ] = 0
 qc1483: p4_30_0 - p3a4_30_1_0 - p3a4_30_1_1 + q3t4_30_0_0 + [ ] = 0
 qc1484: p4_30_1 - p3a4_30_1_2 - q3t4_30_0_0 + [ p3a4_30_1_2 * q3t4_30_0_0
   ] = 0
 qc1485: med3a4_30_0 + [ - p3a4_30_1_2 * q3t4_30_0_0 ] = 0
 qc1486: - p4_31_0 + [ p3_31_0 * rb3_31_0_0 + p3_31_1 * rb3_31_1_0 ] = 0
 qc1487: - p4_31_1 + [ p3_31_0 * rb3_31_0_1 + p3_31_1 * rb3_31_1_1 ] = 0
 qc1488: p3a4_32_1_0 + [ - p3_32_0 * a3c3_32_0_1_0
   - p3_32_1 * a3c3_32_1_1_0 - p3_32_2 * a3c3_32_2_1_0 ] = 0
 qc1489: p3a4_32_1_1 + [ - p3_32_0 * a3c3_32_0_1_1
   - p3_32_1 * a3c3_32_1_1_1 - p3_32_2 * a3c3_32_2_1_1 ] = 0
 qc1490: p3a4_32_1_2 + [ - p3_32_0 * a3c3_32_0_1_2
   - p3_32_1 * a3c3_32_1_1_2 - p3_32_2 * a3c3_32_2_1_2 ] = 0
 qc1491: q3t4_32_0_0 + [ - p3a4_32_1_0 * p3a4_32_1_1 ] = 0
 qc1492: p4_32_0 - p3a4_32_1_0 - p3a4_32_1_1 + q3t4_32_0_0 + [ ] = 0
 qc1493: p4_32_1 - p3a4_32_1_2 - q3t4_32_0_0 + [ p3a4_32_1_2 * q3t4_32_0_0
   ] = 0
 qc1494: med3a4_32_0 + [ - p3a4_32_1_2 * q3t4_32_0_0 ] = 0
 qc1495: - p4_33_0 + [ p3_33_0 * rb3_33_0_0 + p3_33_1 * rb3_33_1_0 ] = 0
 qc1496: - p4_33_1 + [ p3_33_0 * rb3_33_0_1 + p3_33_1 * rb3_33_1_1 ] = 0
 qc1497: - p4_34_0 + [ p3_34_0 * rb3_34_0_0 ] = 0
Bounds
Binaries
 rb0_4_0_0 rb0_5_0_0 rb0_5_0_1 rb0_5_1_0 rb0_5_1_1 rb0_6_0_0 rb0_6_0_1
 rb0_6_0_2 rb0_6_1_0 rb0_6_1_1 rb0_6_1_2 rb0_6_2_0 rb0_6_2_1 rb0_6_2_2
 rb0_7_0_0 rb0_7_0_1 rb0_7_0_2 rb0_7_0_3 rb0_7_1_0 rb0_7_1_1 rb0_7_1_2
 rb0_7_1_3 rb0_7_2_0 rb0_7_2_1 rb0_7_2_2 rb0_7_2_3 rb0_7_3_0 rb0_7_3_1
 rb0_7_3_2 rb0_7_3_3 rb0_8_0_0 rb0_8_0_1 rb0_8_0_2 rb0_8_0_3 rb0_8_0_4
 rb0_8_1_0 rb0_8_1_1 rb0_8_1_2 rb0_8_1_3 rb0_8_1_4 rb0_8_2_0 rb0_8_2_1
 rb0_8_2_2 rb0_8_2_3 rb0_8_2_4 rb0_8_3_0 rb0_8_3_1 rb0_8_3_2 rb0_8_3_3
 rb0_8_3_4 rb0_8_4_0 rb0_8_4_1 rb0_8_4_2 rb0_8_4_3 rb0_8_4_4 f0_9_0_1_0
 f0_9_0_1_1 f0_9_0_1_2 f0_9_0_2_0 f0_9_0_2_1 f0_9_0_2_2 f0_9_1_1_0
 f0_9_1_1_1 f0_9_1_1_2 f0_9_1_2_0 f0_9_1_2_1 f0_9_1_2_2 f0_9_2_1_0
 f0_9_2_1_1 f0_9_2_1_2 f0_9_2_2_0 f0_9_2_2_1 f0_9_2_2_2 f0_9_3_1_0
 f0_9_3_1_1 f0_9_3_1_2 f0_9_3_2_0 f0_9_3_2_1 f0_9_3_2_2 f0_9_4_1_0
 f0_9_4_1_1 f0_9_4_1_2 f0_9_4_2_0 f0_9_4_2_1 f0_9_4_2_2 f0_9_5_1_0
 f0_9_5_1_1 f0_9_5_1_2 f0_9_5_2_0 f0_9_5_2_1 f0_9_5_2_2 rb0_10_0_0
 f0_10_0_1_0 f0_10_0_1_1 f0_10_0_1_2 f0_10_0_2_0 f0_10_0_2_1 f0_10_0_2_2
 rb0_10_1_0 f0_10_1_1_0 f0_10_1_1_1 f0_10_1_1_2 f0_10_1_2_0 f0_10_1_2_1
 f0_10_1_2_2 rb0_10_2_0 f0_10_2_1_0 f0_10_2_1_1 f0_10_2_1_2 f0_10_2_2_0
 f0_10_2_2_1 f0_10_2_2_2 rb0_10_3_0 f0_10_3_1_0 f0_10_3_1_1 f0_10_3_1_2
 f0_10_3_2_0 f0_10_3_2_1 f0_10_3_2_2 rb0_10_4_0 f0_10_4_1_0 f0_10_4_1_1
 f0_10_4_1_2 f0_10_4_2_0 f0_10_4_2_1 f0_10_4_2_2 rb0_10_5_0 f0_10_5_1_0
 f0_10_5_1_1 f0_10_5_1_2 f0_10_5_2_0 f0_10_5_2_1 f0_10_5_2_2 rb0_10_6_0
 f0_10_6_1_0 f0_10_6_1_1 f0_10_6_1_2 f0_10_6_2_0 f0_10_6_2_1 f0_10_6_2_2
 f0_11_0_1_0 f0_11_0_1_1 f0_11_0_1_2 f0_11_0_2_0 f0_11_0_2_1 f0_11_0_2_2
 h0_11_0_1_0 h0_11_0_1_1 f0_11_1_1_0 f0_11_1_1_1 f0_11_1_1_2 f0_11_1_2_0
 f0_11_1_2_1 f0_11_1_2_2 h0_11_1_1_0 h0_11_1_1_1 f0_11_2_1_0 f0_11_2_1_1
 f0_11_2_1_2 f0_11_2_2_0 f0_11_2_2_1 f0_11_2_2_2 h0_11_2_1_0 h0_11_2_1_1
 f0_11_3_1_0 f0_11_3_1_1 f0_11_3_1_2 f0_11_3_2_0 f0_11_3_2_1 f0_11_3_2_2
 h0_11_3_1_0 h0_11_3_1_1 f0_11_4_1_0 f0_11_4_1_1 f0_11_4_1_2 f0_11_4_2_0
 f0_11_4_2_1 f0_11_4_2_2 h0_11_4_1_0 h0_11_4_1_1 f0_11_5_1_0 f0_11_5_1_1
 f0_11_5_1_2 f0_11_5_2_0 f0_11_5_2_1 f0_11_5_2_2 h0_11_5_1_0 h0_11_5_1_1
 f0_11_6_1_0 f0_11_6_1_1 f0_11_6_1_2 f0_11_6_2_0 f0_11_6_2_1 f0_11_6_2_2
 h0_11_6_1_0 h0_11_6_1_1 f0_11_7_1_0 f0_11_7_1_1 f0_11_7_1_2 f0_11_7_2_0
 f0_11_7_2_1 f0_11_7_2_2 h0_11_7_1_0 h0_11_7_1_1 f0_12_0_1_0 f0_12_0_1_1
 f0_12_0_1_2 f0_12_0_2_0 f0_12_0_2_1 f0_12_0_2_2 f0_12_0_3_0 f0_12_0_3_1
 f0_12_0_3_2 f0_12_1_1_0 f0_12_1_1_1 f0_12_1_1_2 f0_12_1_2_0 f0_12_1_2_1
 f0_12_1_2_2 f0_12_1_3_0 f0_12_1_3_1 f0_12_1_3_2 f0_12_2_1_0 f0_12_2_1_1
 f0_12_2_1_2 f0_12_2_2_0 f0_12_2_2_1 f0_12_2_2_2 f0_12_2_3_0 f0_12_2_3_1
 f0_12_2_3_2 f0_12_3_1_0 f0_12_3_1_1 f0_12_3_1_2 f0_12_3_2_0 f0_12_3_2_1
 f0_12_3_2_2 f0_12_3_3_0 f0_12_3_3_1 f0_12_3_3_2 f0_12_4_1_0 f0_12_4_1_1
 f0_12_4_1_2 f0_12_4_2_0 f0_12_4_2_1 f0_12_4_2_2 f0_12_4_3_0 f0_12_4_3_1
 f0_12_4_3_2 f0_12_5_1_0 f0_12_5_1_1 f0_12_5_1_2 f0_12_5_2_0 f0_12_5_2_1
 f0_12_5_2_2 f0_12_5_3_0 f0_12_5_3_1 f0_12_5_3_2 f0_12_6_1_0 f0_12_6_1_1
 f0_12_6_1_2 f0_12_6_2_0 f0_12_6_2_1 f0_12_6_2_2 f0_12_6_3_0 f0_12_6_3_1
 f0_12_6_3_2 f0_12_7_1_0 f0_12_7_1_1 f0_12_7_1_2 f0_12_7_2_0 f0_12_7_2_1
 f0_12_7_2_2 f0_12_7_3_0 f0_12_7_3_1 f0_12_7_3_2 f0_12_8_1_0 f0_12_8_1_1
 f0_12_8_1_2 f0_12_8_2_0 f0_12_8_2_1 f0_12_8_2_2 f0_12_8_3_0 f0_12_8_3_1
 f0_12_8_3_2 rb0_13_0_0 f0_13_0_1_0 f0_13_0_1_1 f0_13_0_1_2 f0_13_0_2_0
 f0_13_0_2_1 f0_13_0_2_2 f0_13_0_3_0 f0_13_0_3_1 f0_13_0_3_2 rb0_13_1_0
 f0_13_1_1_0 f0_13_1_1_1 f0_13_1_1_2 f0_13_1_2_0 f0_13_1_2_1 f0_13_1_2_2
 f0_13_1_3_0 f0_13_1_3_1 f0_13_1_3_2 rb0_13_2_0 f0_13_2_1_0 f0_13_2_1_1
 f0_13_2_1_2 f0_13_2_2_0 f0_13_2_2_1 f0_13_2_2_2 f0_13_2_3_0 f0_13_2_3_1
 f0_13_2_3_2 rb0_13_3_0 f0_13_3_1_0 f0_13_3_1_1 f0_13_3_1_2 f0_13_3_2_0
 f0_13_3_2_1 f0_13_3_2_2 f0_13_3_3_0 f0_13_3_3_1 f0_13_3_3_2 rb0_13_4_0
 f0_13_4_1_0 f0_13_4_1_1 f0_13_4_1_2 f0_13_4_2_0 f0_13_4_2_1 f0_13_4_2_2
 f0_13_4_3_0 f0_13_4_3_1 f0_13_4_3_2 rb0_13_5_0 f0_13_5_1_0 f0_13_5_1_1
 f0_13_5_1_2 f0_13_5_2_0 f0_13_5_2_1 f0_13_5_2_2 f0_13_5_3_0 f0_13_5_3_1
 f0_13_5_3_2 rb0_13_6_0 f0_13_6_1_0 f0_13_6_1_1 f0_13_6_1_2 f0_13_6_2_0
 f0_13_6_2_1 f0_13_6_2_2 f0_13_6_3_0 f0_13_6_3_1 f0_13_6_3_2 rb0_13_7_0
 f0_13_7_1_0 f0_13_7_1_1 f0_13_7_1_2 f0_13_7_2_0 f0_13_7_2_1 f0_13_7_2_2
 f0_13_7_3_0 f0_13_7_3_1 f0_13_7_3_2 rb0_13_8_0 f0_13_8_1_0 f0_13_8_1_1
 f0_13_8_1_2 f0_13_8_2_0 f0_13_8_2_1 f0_13_8_2_2 f0_13_8_3_0 f0_13_8_3_1
 f0_13_8_3_2 rb0_13_9_0 f0_13_9_1_0 f0_13_9_1_1 f0_13_9_1_2 f0_13_9_2_0
 f0_13_9_2_1 f0_13_9_2_2 f0_13_9_3_0 f0_13_9_3_1 f0_13_9_3_2 rb0_14_0_0
 rb0_14_0_1 f0_14_0_1_0 f0_14_0_1_1 f0_14_0_1_2 f0_14_0_2_0 f0_14_0_2_1
 f0_14_0_2_2 f0_14_0_3_0 f0_14_0_3_1 f0_14_0_3_2 rb0_14_1_0 rb0_14_1_1
 f0_14_1_1_0 f0_14_1_1_1 f0_14_1_1_2 f0_14_1_2_0 f0_14_1_2_1 f0_14_1_2_2
 f0_14_1_3_0 f0_14_1_3_1 f0_14_1_3_2 rb0_14_2_0 rb0_14_2_1 f0_14_2_1_0
 f0_14_2_1_1 f0_14_2_1_2 f0_14_2_2_0 f0_14_2_2_1 f0_14_2_2_2 f0_14_2_3_0
 f0_14_2_3_1 f0_14_2_3_2 rb0_14_3_0 rb0_14_3_1 f0_14_3_1_0 f0_14_3_1_1
 f0_14_3_1_2 f0_14_3_2_0 f0_14_3_2_1 f0_14_3_2_2 f0_14_3_3_0 f0_14_3_3_1
 f0_14_3_3_2 rb0_14_4_0 rb0_14_4_1 f0_14_4_1_0 f0_14_4_1_1 f0_14_4_1_2
 f0_14_4_2_0 f0_14_4_2_1 f0_14_4_2_2 f0_14_4_3_0 f0_14_4_3_1 f0_14_4_3_2
 rb0_14_5_0 rb0_14_5_1 f0_14_5_1_0 f0_14_5_1_1 f0_14_5_1_2 f0_14_5_2_0
 f0_14_5_2_1 f0_14_5_2_2 f0_14_5_3_0 f0_14_5_3_1 f0_14_5_3_2 rb0_14_6_0
 rb0_14_6_1 f0_14_6_1_0 f0_14_6_1_1 f0_14_6_1_2 f0_14_6_2_0 f0_14_6_2_1
 f0_14_6_2_2 f0_14_6_3_0 f0_14_6_3_1 f0_14_6_3_2 rb0_14_7_0 rb0_14_7_1
 f0_14_7_1_0 f0_14_7_1_1 f0_14_7_1_2 f0_14_7_2_0 f0_14_7_2_1 f0_14_7_2_2
 f0_14_7_3_0 f0_14_7_3_1 f0_14_7_3_2 rb0_14_8_0 rb0_14_8_1 f0_14_8_1_0
 f0_14_8_1_1 f0_14_8_1_2 f0_14_8_2_0 f0_14_8_2_1 f0_14_8_2_2 f0_14_8_3_0
 f0_14_8_3_1 f0_14_8_3_2 rb0_14_9_0 rb0_14_9_1 f0_14_9_1_0 f0_14_9_1_1
 f0_14_9_1_2 f0_14_9_2_0 f0_14_9_2_1 f0_14_9_2_2 f0_14_9_3_0 f0_14_9_3_1
 f0_14_9_3_2 rb0_14_10_0 rb0_14_10_1 f0_14_10_1_0 f0_14_10_1_1 f0_14_10_1_2
 f0_14_10_2_0 f0_14_10_2_1 f0_14_10_2_2 f0_14_10_3_0 f0_14_10_3_1
 f0_14_10_3_2 f0_15_0_1_0 f0_15_0_1_1 f0_15_0_1_2 f0_15_0_2_0 f0_15_0_2_1
 f0_15_0_2_2 f0_15_0_3_0 f0_15_0_3_1 f0_15_0_3_2 f0_15_0_4_0 f0_15_0_4_1
 f0_15_0_4_2 f0_15_1_1_0 f0_15_1_1_1 f0_15_1_1_2 f0_15_1_2_0 f0_15_1_2_1
 f0_15_1_2_2 f0_15_1_3_0 f0_15_1_3_1 f0_15_1_3_2 f0_15_1_4_0 f0_15_1_4_1
 f0_15_1_4_2 f0_15_2_1_0 f0_15_2_1_1 f0_15_2_1_2 f0_15_2_2_0 f0_15_2_2_1
 f0_15_2_2_2 f0_15_2_3_0 f0_15_2_3_1 f0_15_2_3_2 f0_15_2_4_0 f0_15_2_4_1
 f0_15_2_4_2 f0_15_3_1_0 f0_15_3_1_1 f0_15_3_1_2 f0_15_3_2_0 f0_15_3_2_1
 f0_15_3_2_2 f0_15_3_3_0 f0_15_3_3_1 f0_15_3_3_2 f0_15_3_4_0 f0_15_3_4_1
 f0_15_3_4_2 f0_15_4_1_0 f0_15_4_1_1 f0_15_4_1_2 f0_15_4_2_0 f0_15_4_2_1
 f0_15_4_2_2 f0_15_4_3_0 f0_15_4_3_1 f0_15_4_3_2 f0_15_4_4_0 f0_15_4_4_1
 f0_15_4_4_2 f0_15_5_1_0 f0_15_5_1_1 f0_15_5_1_2 f0_15_5_2_0 f0_15_5_2_1
 f0_15_5_2_2 f0_15_5_3_0 f0_15_5_3_1 f0_15_5_3_2 f0_15_5_4_0 f0_15_5_4_1
 f0_15_5_4_2 f0_15_6_1_0 f0_15_6_1_1 f0_15_6_1_2 f0_15_6_2_0 f0_15_6_2_1
 f0_15_6_2_2 f0_15_6_3_0 f0_15_6_3_1 f0_15_6_3_2 f0_15_6_4_0 f0_15_6_4_1
 f0_15_6_4_2 f0_15_7_1_0 f0_15_7_1_1 f0_15_7_1_2 f0_15_7_2_0 f0_15_7_2_1
 f0_15_7_2_2 f0_15_7_3_0 f0_15_7_3_1 f0_15_7_3_2 f0_15_7_4_0 f0_15_7_4_1
 f0_15_7_4_2 f0_15_8_1_0 f0_15_8_1_1 f0_15_8_1_2 f0_15_8_2_0 f0_15_8_2_1
 f0_15_8_2_2 f0_15_8_3_0 f0_15_8_3_1 f0_15_8_3_2 f0_15_8_4_0 f0_15_8_4_1
 f0_15_8_4_2 f0_15_9_1_0 f0_15_9_1_1 f0_15_9_1_2 f0_15_9_2_0 f0_15_9_2_1
 f0_15_9_2_2 f0_15_9_3_0 f0_15_9_3_1 f0_15_9_3_2 f0_15_9_4_0 f0_15_9_4_1
 f0_15_9_4_2 f0_15_10_1_0 f0_15_10_1_1 f0_15_10_1_2 f0_15_10_2_0
 f0_15_10_2_1 f0_15_10_2_2 f0_15_10_3_0 f0_15_10_3_1 f0_15_10_3_2
 f0_15_10_4_0 f0_15_10_4_1 f0_15_10_4_2 f0_15_11_1_0 f0_15_11_1_1
 f0_15_11_1_2 f0_15_11_2_0 f0_15_11_2_1 f0_15_11_2_2 f0_15_11_3_0
 f0_15_11_3_1 f0_15_11_3_2 f0_15_11_4_0 f0_15_11_4_1 f0_15_11_4_2
 rb0_16_0_0 a4c0_16_0_1_0 a4c0_16_0_1_1 a4c0_16_0_1_2 a4c0_16_0_1_3
 a4c0_16_0_2_0 a4c0_16_0_2_1 a4c0_16_0_2_2 a4c0_16_0_2_3 a4c0_16_0_3_0
 a4c0_16_0_3_1 a4c0_16_0_3_2 a4c0_16_0_3_3 rb0_16_1_0 a4c0_16_1_1_0
 a4c0_16_1_1_1 a4c0_16_1_1_2 a4c0_16_1_1_3 a4c0_16_1_2_0 a4c0_16_1_2_1
 a4c0_16_1_2_2 a4c0_16_1_2_3 a4c0_16_1_3_0 a4c0_16_1_3_1 a4c0_16_1_3_2
 a4c0_16_1_3_3 rb0_16_2_0 a4c0_16_2_1_0 a4c0_16_2_1_1 a4c0_16_2_1_2
 a4c0_16_2_1_3 a4c0_16_2_2_0 a4c0_16_2_2_1 a4c0_16_2_2_2 a4c0_16_2_2_3
 a4c0_16_2_3_0 a4c0_16_2_3_1 a4c0_16_2_3_2 a4c0_16_2_3_3 rb0_16_3_0
 a4c0_16_3_1_0 a4c0_16_3_1_1 a4c0_16_3_1_2 a4c0_16_3_1_3 a4c0_16_3_2_0
 a4c0_16_3_2_1 a4c0_16_3_2_2 a4c0_16_3_2_3 a4c0_16_3_3_0 a4c0_16_3_3_1
 a4c0_16_3_3_2 a4c0_16_3_3_3 rb0_16_4_0 a4c0_16_4_1_0 a4c0_16_4_1_1
 a4c0_16_4_1_2 a4c0_16_4_1_3 a4c0_16_4_2_0 a4c0_16_4_2_1 a4c0_16_4_2_2
 a4c0_16_4_2_3 a4c0_16_4_3_0 a4c0_16_4_3_1 a4c0_16_4_3_2 a4c0_16_4_3_3
 rb0_16_5_0 a4c0_16_5_1_0 a4c0_16_5_1_1 a4c0_16_5_1_2 a4c0_16_5_1_3
 a4c0_16_5_2_0 a4c0_16_5_2_1 a4c0_16_5_2_2 a4c0_16_5_2_3 a4c0_16_5_3_0
 a4c0_16_5_3_1 a4c0_16_5_3_2 a4c0_16_5_3_3 rb0_16_6_0 a4c0_16_6_1_0
 a4c0_16_6_1_1 a4c0_16_6_1_2 a4c0_16_6_1_3 a4c0_16_6_2_0 a4c0_16_6_2_1
 a4c0_16_6_2_2 a4c0_16_6_2_3 a4c0_16_6_3_0 a4c0_16_6_3_1 a4c0_16_6_3_2
 a4c0_16_6_3_3 rb0_16_7_0 a4c0_16_7_1_0 a4c0_16_7_1_1 a4c0_16_7_1_2
 a4c0_16_7_1_3 a4c0_16_7_2_0 a4c0_16_7_2_1 a4c0_16_7_2_2 a4c0_16_7_2_3
 a4c0_16_7_3_0 a4c0_16_7_3_1 a4c0_16_7_3_2 a4c0_16_7_3_3 rb0_16_8_0
 a4c0_16_8_1_0 a4c0_16_8_1_1 a4c0_16_8_1_2 a4c0_16_8_1_3 a4c0_16_8_2_0
 a4c0_16_8_2_1 a4c0_16_8_2_2 a4c0_16_8_2_3 a4c0_16_8_3_0 a4c0_16_8_3_1
 a4c0_16_8_3_2 a4c0_16_8_3_3 rb0_16_9_0 a4c0_16_9_1_0 a4c0_16_9_1_1
 a4c0_16_9_1_2 a4c0_16_9_1_3 a4c0_16_9_2_0 a4c0_16_9_2_1 a4c0_16_9_2_2
 a4c0_16_9_2_3 a4c0_16_9_3_0 a4c0_16_9_3_1 a4c0_16_9_3_2 a4c0_16_9_3_3
 rb0_16_10_0 a4c0_16_10_1_0 a4c0_16_10_1_1 a4c0_16_10_1_2 a4c0_16_10_1_3
 a4c0_16_10_2_0 a4c0_16_10_2_1 a4c0_16_10_2_2 a4c0_16_10_2_3 a4c0_16_10_3_0
 a4c0_16_10_3_1 a4c0_16_10_3_2 a4c0_16_10_3_3 rb0_16_11_0 a4c0_16_11_1_0
 a4c0_16_11_1_1 a4c0_16_11_1_2 a4c0_16_11_1_3 a4c0_16_11_2_0 a4c0_16_11_2_1
 a4c0_16_11_2_2 a4c0_16_11_2_3 a4c0_16_11_3_0 a4c0_16_11_3_1 a4c0_16_11_3_2
 a4c0_16_11_3_3 rb0_16_12_0 a4c0_16_12_1_0 a4c0_16_12_1_1 a4c0_16_12_1_2
 a4c0_16_12_1_3 a4c0_16_12_2_0 a4c0_16_12_2_1 a4c0_16_12_2_2 a4c0_16_12_2_3
 a4c0_16_12_3_0 a4c0_16_12_3_1 a4c0_16_12_3_2 a4c0_16_12_3_3 rb0_17_0_0
 rb0_17_0_1 rb0_17_0_2 a4c0_17_0_1_0 a4c0_17_0_1_1 a4c0_17_0_1_2
 a4c0_17_0_1_3 a4c0_17_0_2_0 a4c0_17_0_2_1 a4c0_17_0_2_2 a4c0_17_0_2_3
 a3c0_17_0_1_0 a3c0_17_0_1_1 a3c0_17_0_1_2 rb0_17_1_0 rb0_17_1_1 rb0_17_1_2
 a4c0_17_1_1_0 a4c0_17_1_1_1 a4c0_17_1_1_2 a4c0_17_1_1_3 a4c0_17_1_2_0
 a4c0_17_1_2_1 a4c0_17_1_2_2 a4c0_17_1_2_3 a3c0_17_1_1_0 a3c0_17_1_1_1
 a3c0_17_1_1_2 rb0_17_2_0 rb0_17_2_1 rb0_17_2_2 a4c0_17_2_1_0 a4c0_17_2_1_1
 a4c0_17_2_1_2 a4c0_17_2_1_3 a4c0_17_2_2_0 a4c0_17_2_2_1 a4c0_17_2_2_2
 a4c0_17_2_2_3 a3c0_17_2_1_0 a3c0_17_2_1_1 a3c0_17_2_1_2 rb0_17_3_0
 rb0_17_3_1 rb0_17_3_2 a4c0_17_3_1_0 a4c0_17_3_1_1 a4c0_17_3_1_2
 a4c0_17_3_1_3 a4c0_17_3_2_0 a4c0_17_3_2_1 a4c0_17_3_2_2 a4c0_17_3_2_3
 a3c0_17_3_1_0 a3c0_17_3_1_1 a3c0_17_3_1_2 rb0_17_4_0 rb0_17_4_1 rb0_17_4_2
 a4c0_17_4_1_0 a4c0_17_4_1_1 a4c0_17_4_1_2 a4c0_17_4_1_3 a4c0_17_4_2_0
 a4c0_17_4_2_1 a4c0_17_4_2_2 a4c0_17_4_2_3 a3c0_17_4_1_0 a3c0_17_4_1_1
 a3c0_17_4_1_2 rb0_17_5_0 rb0_17_5_1 rb0_17_5_2 a4c0_17_5_1_0 a4c0_17_5_1_1
 a4c0_17_5_1_2 a4c0_17_5_1_3 a4c0_17_5_2_0 a4c0_17_5_2_1 a4c0_17_5_2_2
 a4c0_17_5_2_3 a3c0_17_5_1_0 a3c0_17_5_1_1 a3c0_17_5_1_2 rb0_17_6_0
 rb0_17_6_1 rb0_17_6_2 a4c0_17_6_1_0 a4c0_17_6_1_1 a4c0_17_6_1_2
 a4c0_17_6_1_3 a4c0_17_6_2_0 a4c0_17_6_2_1 a4c0_17_6_2_2 a4c0_17_6_2_3
 a3c0_17_6_1_0 a3c0_17_6_1_1 a3c0_17_6_1_2 rb0_17_7_0 rb0_17_7_1 rb0_17_7_2
 a4c0_17_7_1_0 a4c0_17_7_1_1 a4c0_17_7_1_2 a4c0_17_7_1_3 a4c0_17_7_2_0
 a4c0_17_7_2_1 a4c0_17_7_2_2 a4c0_17_7_2_3 a3c0_17_7_1_0 a3c0_17_7_1_1
 a3c0_17_7_1_2 rb0_17_8_0 rb0_17_8_1 rb0_17_8_2 a4c0_17_8_1_0 a4c0_17_8_1_1
 a4c0_17_8_1_2 a4c0_17_8_1_3 a4c0_17_8_2_0 a4c0_17_8_2_1 a4c0_17_8_2_2
 a4c0_17_8_2_3 a3c0_17_8_1_0 a3c0_17_8_1_1 a3c0_17_8_1_2 rb0_17_9_0
 rb0_17_9_1 rb0_17_9_2 a4c0_17_9_1_0 a4c0_17_9_1_1 a4c0_17_9_1_2
 a4c0_17_9_1_3 a4c0_17_9_2_0 a4c0_17_9_2_1 a4c0_17_9_2_2 a4c0_17_9_2_3
 a3c0_17_9_1_0 a3c0_17_9_1_1 a3c0_17_9_1_2 rb0_17_10_0 rb0_17_10_1
 rb0_17_10_2 a4c0_17_10_1_0 a4c0_17_10_1_1 a4c0_17_10_1_2 a4c0_17_10_1_3
 a4c0_17_10_2_0 a4c0_17_10_2_1 a4c0_17_10_2_2 a4c0_17_10_2_3 a3c0_17_10_1_0
 a3c0_17_10_1_1 a3c0_17_10_1_2 rb0_17_11_0 rb0_17_11_1 rb0_17_11_2
 a4c0_17_11_1_0 a4c0_17_11_1_1 a4c0_17_11_1_2 a4c0_17_11_1_3 a4c0_17_11_2_0
 a4c0_17_11_2_1 a4c0_17_11_2_2 a4c0_17_11_2_3 a3c0_17_11_1_0 a3c0_17_11_1_1
 a3c0_17_11_1_2 rb0_17_12_0 rb0_17_12_1 rb0_17_12_2 a4c0_17_12_1_0
 a4c0_17_12_1_1 a4c0_17_12_1_2 a4c0_17_12_1_3 a4c0_17_12_2_0 a4c0_17_12_2_1
 a4c0_17_12_2_2 a4c0_17_12_2_3 a3c0_17_12_1_0 a3c0_17_12_1_1 a3c0_17_12_1_2
 rb0_17_13_0 rb0_17_13_1 rb0_17_13_2 a4c0_17_13_1_0 a4c0_17_13_1_1
 a4c0_17_13_1_2 a4c0_17_13_1_3 a4c0_17_13_2_0 a4c0_17_13_2_1 a4c0_17_13_2_2
 a4c0_17_13_2_3 a3c0_17_13_1_0 a3c0_17_13_1_1 a3c0_17_13_1_2 a4c0_18_0_1_0
 a4c0_18_0_1_1 a4c0_18_0_1_2 a4c0_18_0_1_3 a4c0_18_0_2_0 a4c0_18_0_2_1
 a4c0_18_0_2_2 a4c0_18_0_2_3 a4c0_18_0_3_0 a4c0_18_0_3_1 a4c0_18_0_3_2
 a4c0_18_0_3_3 a3c0_18_0_1_0 a3c0_18_0_1_1 a3c0_18_0_1_2 a4c0_18_1_1_0
 a4c0_18_1_1_1 a4c0_18_1_1_2 a4c0_18_1_1_3 a4c0_18_1_2_0 a4c0_18_1_2_1
 a4c0_18_1_2_2 a4c0_18_1_2_3 a4c0_18_1_3_0 a4c0_18_1_3_1 a4c0_18_1_3_2
 a4c0_18_1_3_3 a3c0_18_1_1_0 a3c0_18_1_1_1 a3c0_18_1_1_2 a4c0_18_2_1_0
 a4c0_18_2_1_1 a4c0_18_2_1_2 a4c0_18_2_1_3 a4c0_18_2_2_0 a4c0_18_2_2_1
 a4c0_18_2_2_2 a4c0_18_2_2_3 a4c0_18_2_3_0 a4c0_18_2_3_1 a4c0_18_2_3_2
 a4c0_18_2_3_3 a3c0_18_2_1_0 a3c0_18_2_1_1 a3c0_18_2_1_2 a4c0_18_3_1_0
 a4c0_18_3_1_1 a4c0_18_3_1_2 a4c0_18_3_1_3 a4c0_18_3_2_0 a4c0_18_3_2_1
 a4c0_18_3_2_2 a4c0_18_3_2_3 a4c0_18_3_3_0 a4c0_18_3_3_1 a4c0_18_3_3_2
 a4c0_18_3_3_3 a3c0_18_3_1_0 a3c0_18_3_1_1 a3c0_18_3_1_2 a4c0_18_4_1_0
 a4c0_18_4_1_1 a4c0_18_4_1_2 a4c0_18_4_1_3 a4c0_18_4_2_0 a4c0_18_4_2_1
 a4c0_18_4_2_2 a4c0_18_4_2_3 a4c0_18_4_3_0 a4c0_18_4_3_1 a4c0_18_4_3_2
 a4c0_18_4_3_3 a3c0_18_4_1_0 a3c0_18_4_1_1 a3c0_18_4_1_2 a4c0_18_5_1_0
 a4c0_18_5_1_1 a4c0_18_5_1_2 a4c0_18_5_1_3 a4c0_18_5_2_0 a4c0_18_5_2_1
 a4c0_18_5_2_2 a4c0_18_5_2_3 a4c0_18_5_3_0 a4c0_18_5_3_1 a4c0_18_5_3_2
 a4c0_18_5_3_3 a3c0_18_5_1_0 a3c0_18_5_1_1 a3c0_18_5_1_2 a4c0_18_6_1_0
 a4c0_18_6_1_1 a4c0_18_6_1_2 a4c0_18_6_1_3 a4c0_18_6_2_0 a4c0_18_6_2_1
 a4c0_18_6_2_2 a4c0_18_6_2_3 a4c0_18_6_3_0 a4c0_18_6_3_1 a4c0_18_6_3_2
 a4c0_18_6_3_3 a3c0_18_6_1_0 a3c0_18_6_1_1 a3c0_18_6_1_2 a4c0_18_7_1_0
 a4c0_18_7_1_1 a4c0_18_7_1_2 a4c0_18_7_1_3 a4c0_18_7_2_0 a4c0_18_7_2_1
 a4c0_18_7_2_2 a4c0_18_7_2_3 a4c0_18_7_3_0 a4c0_18_7_3_1 a4c0_18_7_3_2
 a4c0_18_7_3_3 a3c0_18_7_1_0 a3c0_18_7_1_1 a3c0_18_7_1_2 a4c0_18_8_1_0
 a4c0_18_8_1_1 a4c0_18_8_1_2 a4c0_18_8_1_3 a4c0_18_8_2_0 a4c0_18_8_2_1
 a4c0_18_8_2_2 a4c0_18_8_2_3 a4c0_18_8_3_0 a4c0_18_8_3_1 a4c0_18_8_3_2
 a4c0_18_8_3_3 a3c0_18_8_1_0 a3c0_18_8_1_1 a3c0_18_8_1_2 a4c0_18_9_1_0
 a4c0_18_9_1_1 a4c0_18_9_1_2 a4c0_18_9_1_3 a4c0_18_9_2_0 a4c0_18_9_2_1
 a4c0_18_9_2_2 a4c0_18_9_2_3 a4c0_18_9_3_0 a4c0_18_9_3_1 a4c0_18_9_3_2
 a4c0_18_9_3_3 a3c0_18_9_1_0 a3c0_18_9_1_1 a3c0_18_9_1_2 a4c0_18_10_1_0
 a4c0_18_10_1_1 a4c0_18_10_1_2 a4c0_18_10_1_3 a4c0_18_10_2_0 a4c0_18_10_2_1
 a4c0_18_10_2_2 a4c0_18_10_2_3 a4c0_18_10_3_0 a4c0_18_10_3_1 a4c0_18_10_3_2
 a4c0_18_10_3_3 a3c0_18_10_1_0 a3c0_18_10_1_1 a3c0_18_10_1_2 a4c0_18_11_1_0
 a4c0_18_11_1_1 a4c0_18_11_1_2 a4c0_18_11_1_3 a4c0_18_11_2_0 a4c0_18_11_2_1
 a4c0_18_11_2_2 a4c0_18_11_2_3 a4c0_18_11_3_0 a4c0_18_11_3_1 a4c0_18_11_3_2
 a4c0_18_11_3_3 a3c0_18_11_1_0 a3c0_18_11_1_1 a3c0_18_11_1_2 a4c0_18_12_1_0
 a4c0_18_12_1_1 a4c0_18_12_1_2 a4c0_18_12_1_3 a4c0_18_12_2_0 a4c0_18_12_2_1
 a4c0_18_12_2_2 a4c0_18_12_2_3 a4c0_18_12_3_0 a4c0_18_12_3_1 a4c0_18_12_3_2
 a4c0_18_12_3_3 a3c0_18_12_1_0 a3c0_18_12_1_1 a3c0_18_12_1_2 a4c0_18_13_1_0
 a4c0_18_13_1_1 a4c0_18_13_1_2 a4c0_18_13_1_3 a4c0_18_13_2_0 a4c0_18_13_2_1
 a4c0_18_13_2_2 a4c0_18_13_2_3 a4c0_18_13_3_0 a4c0_18_13_3_1 a4c0_18_13_3_2
 a4c0_18_13_3_3 a3c0_18_13_1_0 a3c0_18_13_1_1 a3c0_18_13_1_2 a4c0_18_14_1_0
 a4c0_18_14_1_1 a4c0_18_14_1_2 a4c0_18_14_1_3 a4c0_18_14_2_0 a4c0_18_14_2_1
 a4c0_18_14_2_2 a4c0_18_14_2_3 a4c0_18_14_3_0 a4c0_18_14_3_1 a4c0_18_14_3_2
 a4c0_18_14_3_3 a3c0_18_14_1_0 a3c0_18_14_1_1 a3c0_18_14_1_2 a4c0_19_0_1_0
 a4c0_19_0_1_1 a4c0_19_0_1_2 a4c0_19_0_1_3 a4c0_19_0_2_0 a4c0_19_0_2_1
 a4c0_19_0_2_2 a4c0_19_0_2_3 a4c0_19_0_3_0 a4c0_19_0_3_1 a4c0_19_0_3_2
 a4c0_19_0_3_3 a4c0_19_0_4_0 a4c0_19_0_4_1 a4c0_19_0_4_2 a4c0_19_0_4_3
 a4c0_19_1_1_0 a4c0_19_1_1_1 a4c0_19_1_1_2 a4c0_19_1_1_3 a4c0_19_1_2_0
 a4c0_19_1_2_1 a4c0_19_1_2_2 a4c0_19_1_2_3 a4c0_19_1_3_0 a4c0_19_1_3_1
 a4c0_19_1_3_2 a4c0_19_1_3_3 a4c0_19_1_4_0 a4c0_19_1_4_1 a4c0_19_1_4_2
 a4c0_19_1_4_3 a4c0_19_2_1_0 a4c0_19_2_1_1 a4c0_19_2_1_2 a4c0_19_2_1_3
 a4c0_19_2_2_0 a4c0_19_2_2_1 a4c0_19_2_2_2 a4c0_19_2_2_3 a4c0_19_2_3_0
 a4c0_19_2_3_1 a4c0_19_2_3_2 a4c0_19_2_3_3 a4c0_19_2_4_0 a4c0_19_2_4_1
 a4c0_19_2_4_2 a4c0_19_2_4_3 a4c0_19_3_1_0 a4c0_19_3_1_1 a4c0_19_3_1_2
 a4c0_19_3_1_3 a4c0_19_3_2_0 a4c0_19_3_2_1 a4c0_19_3_2_2 a4c0_19_3_2_3
 a4c0_19_3_3_0 a4c0_19_3_3_1 a4c0_19_3_3_2 a4c0_19_3_3_3 a4c0_19_3_4_0
 a4c0_19_3_4_1 a4c0_19_3_4_2 a4c0_19_3_4_3 a4c0_19_4_1_0 a4c0_19_4_1_1
 a4c0_19_4_1_2 a4c0_19_4_1_3 a4c0_19_4_2_0 a4c0_19_4_2_1 a4c0_19_4_2_2
 a4c0_19_4_2_3 a4c0_19_4_3_0 a4c0_19_4_3_1 a4c0_19_4_3_2 a4c0_19_4_3_3
 a4c0_19_4_4_0 a4c0_19_4_4_1 a4c0_19_4_4_2 a4c0_19_4_4_3 a4c0_19_5_1_0
 a4c0_19_5_1_1 a4c0_19_5_1_2 a4c0_19_5_1_3 a4c0_19_5_2_0 a4c0_19_5_2_1
 a4c0_19_5_2_2 a4c0_19_5_2_3 a4c0_19_5_3_0 a4c0_19_5_3_1 a4c0_19_5_3_2
 a4c0_19_5_3_3 a4c0_19_5_4_0 a4c0_19_5_4_1 a4c0_19_5_4_2 a4c0_19_5_4_3
 a4c0_19_6_1_0 a4c0_19_6_1_1 a4c0_19_6_1_2 a4c0_19_6_1_3 a4c0_19_6_2_0
 a4c0_19_6_2_1 a4c0_19_6_2_2 a4c0_19_6_2_3 a4c0_19_6_3_0 a4c0_19_6_3_1
 a4c0_19_6_3_2 a4c0_19_6_3_3 a4c0_19_6_4_0 a4c0_19_6_4_1 a4c0_19_6_4_2
 a4c0_19_6_4_3 a4c0_19_7_1_0 a4c0_19_7_1_1 a4c0_19_7_1_2 a4c0_19_7_1_3
 a4c0_19_7_2_0 a4c0_19_7_2_1 a4c0_19_7_2_2 a4c0_19_7_2_3 a4c0_19_7_3_0
 a4c0_19_7_3_1 a4c0_19_7_3_2 a4c0_19_7_3_3 a4c0_19_7_4_0 a4c0_19_7_4_1
 a4c0_19_7_4_2 a4c0_19_7_4_3 a4c0_19_8_1_0 a4c0_19_8_1_1 a4c0_19_8_1_2
 a4c0_19_8_1_3 a4c0_19_8_2_0 a4c0_19_8_2_1 a4c0_19_8_2_2 a4c0_19_8_2_3
 a4c0_19_8_3_0 a4c0_19_8_3_1 a4c0_19_8_3_2 a4c0_19_8_3_3 a4c0_19_8_4_0
 a4c0_19_8_4_1 a4c0_19_8_4_2 a4c0_19_8_4_3 a4c0_19_9_1_0 a4c0_19_9_1_1
 a4c0_19_9_1_2 a4c0_19_9_1_3 a4c0_19_9_2_0 a4c0_19_9_2_1 a4c0_19_9_2_2
 a4c0_19_9_2_3 a4c0_19_9_3_0 a4c0_19_9_3_1 a4c0_19_9_3_2 a4c0_19_9_3_3
 a4c0_19_9_4_0 a4c0_19_9_4_1 a4c0_19_9_4_2 a4c0_19_9_4_3 a4c0_19_10_1_0
 a4c0_19_10_1_1 a4c0_19_10_1_2 a4c0_19_10_1_3 a4c0_19_10_2_0 a4c0_19_10_2_1
 a4c0_19_10_2_2 a4c0_19_10_2_3 a4c0_19_10_3_0 a4c0_19_10_3_1 a4c0_19_10_3_2
 a4c0_19_10_3_3 a4c0_19_10_4_0 a4c0_19_10_4_1 a4c0_19_10_4_2 a4c0_19_10_4_3
 a4c0_19_11_1_0 a4c0_19_11_1_1 a4c0_19_11_1_2 a4c0_19_11_1_3 a4c0_19_11_2_0
 a4c0_19_11_2_1 a4c0_19_11_2_2 a4c0_19_11_2_3 a4c0_19_11_3_0 a4c0_19_11_3_1
 a4c0_19_11_3_2 a4c0_19_11_3_3 a4c0_19_11_4_0 a4c0_19_11_4_1 a4c0_19_11_4_2
 a4c0_19_11_4_3 a4c0_19_12_1_0 a4c0_19_12_1_1 a4c0_19_12_1_2 a4c0_19_12_1_3
 a4c0_19_12_2_0 a4c0_19_12_2_1 a4c0_19_12_2_2 a4c0_19_12_2_3 a4c0_19_12_3_0
 a4c0_19_12_3_1 a4c0_19_12_3_2 a4c0_19_12_3_3 a4c0_19_12_4_0 a4c0_19_12_4_1
 a4c0_19_12_4_2 a4c0_19_12_4_3 a4c0_19_13_1_0 a4c0_19_13_1_1 a4c0_19_13_1_2
 a4c0_19_13_1_3 a4c0_19_13_2_0 a4c0_19_13_2_1 a4c0_19_13_2_2 a4c0_19_13_2_3
 a4c0_19_13_3_0 a4c0_19_13_3_1 a4c0_19_13_3_2 a4c0_19_13_3_3 a4c0_19_13_4_0
 a4c0_19_13_4_1 a4c0_19_13_4_2 a4c0_19_13_4_3 a4c0_19_14_1_0 a4c0_19_14_1_1
 a4c0_19_14_1_2 a4c0_19_14_1_3 a4c0_19_14_2_0 a4c0_19_14_2_1 a4c0_19_14_2_2
 a4c0_19_14_2_3 a4c0_19_14_3_0 a4c0_19_14_3_1 a4c0_19_14_3_2 a4c0_19_14_3_3
 a4c0_19_14_4_0 a4c0_19_14_4_1 a4c0_19_14_4_2 a4c0_19_14_4_3 a4c0_19_15_1_0
 a4c0_19_15_1_1 a4c0_19_15_1_2 a4c0_19_15_1_3 a4c0_19_15_2_0 a4c0_19_15_2_1
 a4c0_19_15_2_2 a4c0_19_15_2_3 a4c0_19_15_3_0 a4c0_19_15_3_1 a4c0_19_15_3_2
 a4c0_19_15_3_3 a4c0_19_15_4_0 a4c0_19_15_4_1 a4c0_19_15_4_2 a4c0_19_15_4_3
 rb0_20_0_0 rb0_20_0_1 rb0_20_0_2 a4c0_20_0_1_0 a4c0_20_0_1_1 a4c0_20_0_1_2
 a4c0_20_0_1_3 a4c0_20_0_2_0 a4c0_20_0_2_1 a4c0_20_0_2_2 a4c0_20_0_2_3
 a4c0_20_0_3_0 a4c0_20_0_3_1 a4c0_20_0_3_2 a4c0_20_0_3_3 rb0_20_1_0
 rb0_20_1_1 rb0_20_1_2 a4c0_20_1_1_0 a4c0_20_1_1_1 a4c0_20_1_1_2
 a4c0_20_1_1_3 a4c0_20_1_2_0 a4c0_20_1_2_1 a4c0_20_1_2_2 a4c0_20_1_2_3
 a4c0_20_1_3_0 a4c0_20_1_3_1 a4c0_20_1_3_2 a4c0_20_1_3_3 rb0_20_2_0
 rb0_20_2_1 rb0_20_2_2 a4c0_20_2_1_0 a4c0_20_2_1_1 a4c0_20_2_1_2
 a4c0_20_2_1_3 a4c0_20_2_2_0 a4c0_20_2_2_1 a4c0_20_2_2_2 a4c0_20_2_2_3
 a4c0_20_2_3_0 a4c0_20_2_3_1 a4c0_20_2_3_2 a4c0_20_2_3_3 rb0_20_3_0
 rb0_20_3_1 rb0_20_3_2 a4c0_20_3_1_0 a4c0_20_3_1_1 a4c0_20_3_1_2
 a4c0_20_3_1_3 a4c0_20_3_2_0 a4c0_20_3_2_1 a4c0_20_3_2_2 a4c0_20_3_2_3
 a4c0_20_3_3_0 a4c0_20_3_3_1 a4c0_20_3_3_2 a4c0_20_3_3_3 rb0_20_4_0
 rb0_20_4_1 rb0_20_4_2 a4c0_20_4_1_0 a4c0_20_4_1_1 a4c0_20_4_1_2
 a4c0_20_4_1_3 a4c0_20_4_2_0 a4c0_20_4_2_1 a4c0_20_4_2_2 a4c0_20_4_2_3
 a4c0_20_4_3_0 a4c0_20_4_3_1 a4c0_20_4_3_2 a4c0_20_4_3_3 rb0_20_5_0
 rb0_20_5_1 rb0_20_5_2 a4c0_20_5_1_0 a4c0_20_5_1_1 a4c0_20_5_1_2
 a4c0_20_5_1_3 a4c0_20_5_2_0 a4c0_20_5_2_1 a4c0_20_5_2_2 a4c0_20_5_2_3
 a4c0_20_5_3_0 a4c0_20_5_3_1 a4c0_20_5_3_2 a4c0_20_5_3_3 rb0_20_6_0
 rb0_20_6_1 rb0_20_6_2 a4c0_20_6_1_0 a4c0_20_6_1_1 a4c0_20_6_1_2
 a4c0_20_6_1_3 a4c0_20_6_2_0 a4c0_20_6_2_1 a4c0_20_6_2_2 a4c0_20_6_2_3
 a4c0_20_6_3_0 a4c0_20_6_3_1 a4c0_20_6_3_2 a4c0_20_6_3_3 rb0_20_7_0
 rb0_20_7_1 rb0_20_7_2 a4c0_20_7_1_0 a4c0_20_7_1_1 a4c0_20_7_1_2
 a4c0_20_7_1_3 a4c0_20_7_2_0 a4c0_20_7_2_1 a4c0_20_7_2_2 a4c0_20_7_2_3
 a4c0_20_7_3_0 a4c0_20_7_3_1 a4c0_20_7_3_2 a4c0_20_7_3_3 rb0_20_8_0
 rb0_20_8_1 rb0_20_8_2 a4c0_20_8_1_0 a4c0_20_8_1_1 a4c0_20_8_1_2
 a4c0_20_8_1_3 a4c0_20_8_2_0 a4c0_20_8_2_1 a4c0_20_8_2_2 a4c0_20_8_2_3
 a4c0_20_8_3_0 a4c0_20_8_3_1 a4c0_20_8_3_2 a4c0_20_8_3_3 rb0_20_9_0
 rb0_20_9_1 rb0_20_9_2 a4c0_20_9_1_0 a4c0_20_9_1_1 a4c0_20_9_1_2
 a4c0_20_9_1_3 a4c0_20_9_2_0 a4c0_20_9_2_1 a4c0_20_9_2_2 a4c0_20_9_2_3
 a4c0_20_9_3_0 a4c0_20_9_3_1 a4c0_20_9_3_2 a4c0_20_9_3_3 rb0_20_10_0
 rb0_20_10_1 rb0_20_10_2 a4c0_20_10_1_0 a4c0_20_10_1_1 a4c0_20_10_1_2
 a4c0_20_10_1_3 a4c0_20_10_2_0 a4c0_20_10_2_1 a4c0_20_10_2_2 a4c0_20_10_2_3
 a4c0_20_10_3_0 a4c0_20_10_3_1 a4c0_20_10_3_2 a4c0_20_10_3_3 rb0_20_11_0
 rb0_20_11_1 rb0_20_11_2 a4c0_20_11_1_0 a4c0_20_11_1_1 a4c0_20_11_1_2
 a4c0_20_11_1_3 a4c0_20_11_2_0 a4c0_20_11_2_1 a4c0_20_11_2_2 a4c0_20_11_2_3
 a4c0_20_11_3_0 a4c0_20_11_3_1 a4c0_20_11_3_2 a4c0_20_11_3_3 rb0_20_12_0
 rb0_20_12_1 rb0_20_12_2 a4c0_20_12_1_0 a4c0_20_12_1_1 a4c0_20_12_1_2
 a4c0_20_12_1_3 a4c0_20_12_2_0 a4c0_20_12_2_1 a4c0_20_12_2_2 a4c0_20_12_2_3
 a4c0_20_12_3_0 a4c0_20_12_3_1 a4c0_20_12_3_2 a4c0_20_12_3_3 rb0_20_13_0
 rb0_20_13_1 rb0_20_13_2 a4c0_20_13_1_0 a4c0_20_13_1_1 a4c0_20_13_1_2
 a4c0_20_13_1_3 a4c0_20_13_2_0 a4c0_20_13_2_1 a4c0_20_13_2_2 a4c0_20_13_2_3
 a4c0_20_13_3_0 a4c0_20_13_3_1 a4c0_20_13_3_2 a4c0_20_13_3_3 rb0_20_14_0
 rb0_20_14_1 rb0_20_14_2 a4c0_20_14_1_0 a4c0_20_14_1_1 a4c0_20_14_1_2
 a4c0_20_14_1_3 a4c0_20_14_2_0 a4c0_20_14_2_1 a4c0_20_14_2_2 a4c0_20_14_2_3
 a4c0_20_14_3_0 a4c0_20_14_3_1 a4c0_20_14_3_2 a4c0_20_14_3_3 rb0_21_0_0
 rb0_21_0_1 a4c0_21_0_1_0 a4c0_21_0_1_1 a4c0_21_0_1_2 a4c0_21_0_1_3
 a4c0_21_0_2_0 a4c0_21_0_2_1 a4c0_21_0_2_2 a4c0_21_0_2_3 a4c0_21_0_3_0
 a4c0_21_0_3_1 a4c0_21_0_3_2 a4c0_21_0_3_3 rb0_21_1_0 rb0_21_1_1
 a4c0_21_1_1_0 a4c0_21_1_1_1 a4c0_21_1_1_2 a4c0_21_1_1_3 a4c0_21_1_2_0
 a4c0_21_1_2_1 a4c0_21_1_2_2 a4c0_21_1_2_3 a4c0_21_1_3_0 a4c0_21_1_3_1
 a4c0_21_1_3_2 a4c0_21_1_3_3 rb0_21_2_0 rb0_21_2_1 a4c0_21_2_1_0
 a4c0_21_2_1_1 a4c0_21_2_1_2 a4c0_21_2_1_3 a4c0_21_2_2_0 a4c0_21_2_2_1
 a4c0_21_2_2_2 a4c0_21_2_2_3 a4c0_21_2_3_0 a4c0_21_2_3_1 a4c0_21_2_3_2
 a4c0_21_2_3_3 rb0_21_3_0 rb0_21_3_1 a4c0_21_3_1_0 a4c0_21_3_1_1
 a4c0_21_3_1_2 a4c0_21_3_1_3 a4c0_21_3_2_0 a4c0_21_3_2_1 a4c0_21_3_2_2
 a4c0_21_3_2_3 a4c0_21_3_3_0 a4c0_21_3_3_1 a4c0_21_3_3_2 a4c0_21_3_3_3
 rb0_21_4_0 rb0_21_4_1 a4c0_21_4_1_0 a4c0_21_4_1_1 a4c0_21_4_1_2
 a4c0_21_4_1_3 a4c0_21_4_2_0 a4c0_21_4_2_1 a4c0_21_4_2_2 a4c0_21_4_2_3
 a4c0_21_4_3_0 a4c0_21_4_3_1 a4c0_21_4_3_2 a4c0_21_4_3_3 rb0_21_5_0
 rb0_21_5_1 a4c0_21_5_1_0 a4c0_21_5_1_1 a4c0_21_5_1_2 a4c0_21_5_1_3
 a4c0_21_5_2_0 a4c0_21_5_2_1 a4c0_21_5_2_2 a4c0_21_5_2_3 a4c0_21_5_3_0
 a4c0_21_5_3_1 a4c0_21_5_3_2 a4c0_21_5_3_3 rb0_21_6_0 rb0_21_6_1
 a4c0_21_6_1_0 a4c0_21_6_1_1 a4c0_21_6_1_2 a4c0_21_6_1_3 a4c0_21_6_2_0
 a4c0_21_6_2_1 a4c0_21_6_2_2 a4c0_21_6_2_3 a4c0_21_6_3_0 a4c0_21_6_3_1
 a4c0_21_6_3_2 a4c0_21_6_3_3 rb0_21_7_0 rb0_21_7_1 a4c0_21_7_1_0
 a4c0_21_7_1_1 a4c0_21_7_1_2 a4c0_21_7_1_3 a4c0_21_7_2_0 a4c0_21_7_2_1
 a4c0_21_7_2_2 a4c0_21_7_2_3 a4c0_21_7_3_0 a4c0_21_7_3_1 a4c0_21_7_3_2
 a4c0_21_7_3_3 rb0_21_8_0 rb0_21_8_1 a4c0_21_8_1_0 a4c0_21_8_1_1
 a4c0_21_8_1_2 a4c0_21_8_1_3 a4c0_21_8_2_0 a4c0_21_8_2_1 a4c0_21_8_2_2
 a4c0_21_8_2_3 a4c0_21_8_3_0 a4c0_21_8_3_1 a4c0_21_8_3_2 a4c0_21_8_3_3
 rb0_21_9_0 rb0_21_9_1 a4c0_21_9_1_0 a4c0_21_9_1_1 a4c0_21_9_1_2
 a4c0_21_9_1_3 a4c0_21_9_2_0 a4c0_21_9_2_1 a4c0_21_9_2_2 a4c0_21_9_2_3
 a4c0_21_9_3_0 a4c0_21_9_3_1 a4c0_21_9_3_2 a4c0_21_9_3_3 rb0_21_10_0
 rb0_21_10_1 a4c0_21_10_1_0 a4c0_21_10_1_1 a4c0_21_10_1_2 a4c0_21_10_1_3
 a4c0_21_10_2_0 a4c0_21_10_2_1 a4c0_21_10_2_2 a4c0_21_10_2_3 a4c0_21_10_3_0
 a4c0_21_10_3_1 a4c0_21_10_3_2 a4c0_21_10_3_3 rb0_21_11_0 rb0_21_11_1
 a4c0_21_11_1_0 a4c0_21_11_1_1 a4c0_21_11_1_2 a4c0_21_11_1_3 a4c0_21_11_2_0
 a4c0_21_11_2_1 a4c0_21_11_2_2 a4c0_21_11_2_3 a4c0_21_11_3_0 a4c0_21_11_3_1
 a4c0_21_11_3_2 a4c0_21_11_3_3 rb0_21_12_0 rb0_21_12_1 a4c0_21_12_1_0
 a4c0_21_12_1_1 a4c0_21_12_1_2 a4c0_21_12_1_3 a4c0_21_12_2_0 a4c0_21_12_2_1
 a4c0_21_12_2_2 a4c0_21_12_2_3 a4c0_21_12_3_0 a4c0_21_12_3_1 a4c0_21_12_3_2
 a4c0_21_12_3_3 rb0_21_13_0 rb0_21_13_1 a4c0_21_13_1_0 a4c0_21_13_1_1
 a4c0_21_13_1_2 a4c0_21_13_1_3 a4c0_21_13_2_0 a4c0_21_13_2_1 a4c0_21_13_2_2
 a4c0_21_13_2_3 a4c0_21_13_3_0 a4c0_21_13_3_1 a4c0_21_13_3_2 a4c0_21_13_3_3
 rb0_22_0_0 a4c0_22_0_1_0 a4c0_22_0_1_1 a4c0_22_0_1_2 a4c0_22_0_1_3
 a4c0_22_0_2_0 a4c0_22_0_2_1 a4c0_22_0_2_2 a4c0_22_0_2_3 a4c0_22_0_3_0
 a4c0_22_0_3_1 a4c0_22_0_3_2 a4c0_22_0_3_3 rb0_22_1_0 a4c0_22_1_1_0
 a4c0_22_1_1_1 a4c0_22_1_1_2 a4c0_22_1_1_3 a4c0_22_1_2_0 a4c0_22_1_2_1
 a4c0_22_1_2_2 a4c0_22_1_2_3 a4c0_22_1_3_0 a4c0_22_1_3_1 a4c0_22_1_3_2
 a4c0_22_1_3_3 rb0_22_2_0 a4c0_22_2_1_0 a4c0_22_2_1_1 a4c0_22_2_1_2
 a4c0_22_2_1_3 a4c0_22_2_2_0 a4c0_22_2_2_1 a4c0_22_2_2_2 a4c0_22_2_2_3
 a4c0_22_2_3_0 a4c0_22_2_3_1 a4c0_22_2_3_2 a4c0_22_2_3_3 rb0_22_3_0
 a4c0_22_3_1_0 a4c0_22_3_1_1 a4c0_22_3_1_2 a4c0_22_3_1_3 a4c0_22_3_2_0
 a4c0_22_3_2_1 a4c0_22_3_2_2 a4c0_22_3_2_3 a4c0_22_3_3_0 a4c0_22_3_3_1
 a4c0_22_3_3_2 a4c0_22_3_3_3 rb0_22_4_0 a4c0_22_4_1_0 a4c0_22_4_1_1
 a4c0_22_4_1_2 a4c0_22_4_1_3 a4c0_22_4_2_0 a4c0_22_4_2_1 a4c0_22_4_2_2
 a4c0_22_4_2_3 a4c0_22_4_3_0 a4c0_22_4_3_1 a4c0_22_4_3_2 a4c0_22_4_3_3
 rb0_22_5_0 a4c0_22_5_1_0 a4c0_22_5_1_1 a4c0_22_5_1_2 a4c0_22_5_1_3
 a4c0_22_5_2_0 a4c0_22_5_2_1 a4c0_22_5_2_2 a4c0_22_5_2_3 a4c0_22_5_3_0
 a4c0_22_5_3_1 a4c0_22_5_3_2 a4c0_22_5_3_3 rb0_22_6_0 a4c0_22_6_1_0
 a4c0_22_6_1_1 a4c0_22_6_1_2 a4c0_22_6_1_3 a4c0_22_6_2_0 a4c0_22_6_2_1
 a4c0_22_6_2_2 a4c0_22_6_2_3 a4c0_22_6_3_0 a4c0_22_6_3_1 a4c0_22_6_3_2
 a4c0_22_6_3_3 rb0_22_7_0 a4c0_22_7_1_0 a4c0_22_7_1_1 a4c0_22_7_1_2
 a4c0_22_7_1_3 a4c0_22_7_2_0 a4c0_22_7_2_1 a4c0_22_7_2_2 a4c0_22_7_2_3
 a4c0_22_7_3_0 a4c0_22_7_3_1 a4c0_22_7_3_2 a4c0_22_7_3_3 rb0_22_8_0
 a4c0_22_8_1_0 a4c0_22_8_1_1 a4c0_22_8_1_2 a4c0_22_8_1_3 a4c0_22_8_2_0
 a4c0_22_8_2_1 a4c0_22_8_2_2 a4c0_22_8_2_3 a4c0_22_8_3_0 a4c0_22_8_3_1
 a4c0_22_8_3_2 a4c0_22_8_3_3 rb0_22_9_0 a4c0_22_9_1_0 a4c0_22_9_1_1
 a4c0_22_9_1_2 a4c0_22_9_1_3 a4c0_22_9_2_0 a4c0_22_9_2_1 a4c0_22_9_2_2
 a4c0_22_9_2_3 a4c0_22_9_3_0 a4c0_22_9_3_1 a4c0_22_9_3_2 a4c0_22_9_3_3
 rb0_22_10_0 a4c0_22_10_1_0 a4c0_22_10_1_1 a4c0_22_10_1_2 a4c0_22_10_1_3
 a4c0_22_10_2_0 a4c0_22_10_2_1 a4c0_22_10_2_2 a4c0_22_10_2_3 a4c0_22_10_3_0
 a4c0_22_10_3_1 a4c0_22_10_3_2 a4c0_22_10_3_3 rb0_22_11_0 a4c0_22_11_1_0
 a4c0_22_11_1_1 a4c0_22_11_1_2 a4c0_22_11_1_3 a4c0_22_11_2_0 a4c0_22_11_2_1
 a4c0_22_11_2_2 a4c0_22_11_2_3 a4c0_22_11_3_0 a4c0_22_11_3_1 a4c0_22_11_3_2
 a4c0_22_11_3_3 rb0_22_12_0 a4c0_22_12_1_0 a4c0_22_12_1_1 a4c0_22_12_1_2
 a4c0_22_12_1_3 a4c0_22_12_2_0 a4c0_22_12_2_1 a4c0_22_12_2_2 a4c0_22_12_2_3
 a4c0_22_12_3_0 a4c0_22_12_3_1 a4c0_22_12_3_2 a4c0_22_12_3_3 rb0_23_0_0
 a4c0_23_0_1_0 a4c0_23_0_1_1 a4c0_23_0_1_2 a4c0_23_0_1_3 a4c0_23_0_2_0
 a4c0_23_0_2_1 a4c0_23_0_2_2 a4c0_23_0_2_3 a3c0_23_0_1_0 a3c0_23_0_1_1
 a3c0_23_0_1_2 rb0_23_1_0 a4c0_23_1_1_0 a4c0_23_1_1_1 a4c0_23_1_1_2
 a4c0_23_1_1_3 a4c0_23_1_2_0 a4c0_23_1_2_1 a4c0_23_1_2_2 a4c0_23_1_2_3
 a3c0_23_1_1_0 a3c0_23_1_1_1 a3c0_23_1_1_2 rb0_23_2_0 a4c0_23_2_1_0
 a4c0_23_2_1_1 a4c0_23_2_1_2 a4c0_23_2_1_3 a4c0_23_2_2_0 a4c0_23_2_2_1
 a4c0_23_2_2_2 a4c0_23_2_2_3 a3c0_23_2_1_0 a3c0_23_2_1_1 a3c0_23_2_1_2
 rb0_23_3_0 a4c0_23_3_1_0 a4c0_23_3_1_1 a4c0_23_3_1_2 a4c0_23_3_1_3
 a4c0_23_3_2_0 a4c0_23_3_2_1 a4c0_23_3_2_2 a4c0_23_3_2_3 a3c0_23_3_1_0
 a3c0_23_3_1_1 a3c0_23_3_1_2 rb0_23_4_0 a4c0_23_4_1_0 a4c0_23_4_1_1
 a4c0_23_4_1_2 a4c0_23_4_1_3 a4c0_23_4_2_0 a4c0_23_4_2_1 a4c0_23_4_2_2
 a4c0_23_4_2_3 a3c0_23_4_1_0 a3c0_23_4_1_1 a3c0_23_4_1_2 rb0_23_5_0
 a4c0_23_5_1_0 a4c0_23_5_1_1 a4c0_23_5_1_2 a4c0_23_5_1_3 a4c0_23_5_2_0
 a4c0_23_5_2_1 a4c0_23_5_2_2 a4c0_23_5_2_3 a3c0_23_5_1_0 a3c0_23_5_1_1
 a3c0_23_5_1_2 rb0_23_6_0 a4c0_23_6_1_0 a4c0_23_6_1_1 a4c0_23_6_1_2
 a4c0_23_6_1_3 a4c0_23_6_2_0 a4c0_23_6_2_1 a4c0_23_6_2_2 a4c0_23_6_2_3
 a3c0_23_6_1_0 a3c0_23_6_1_1 a3c0_23_6_1_2 rb0_23_7_0 a4c0_23_7_1_0
 a4c0_23_7_1_1 a4c0_23_7_1_2 a4c0_23_7_1_3 a4c0_23_7_2_0 a4c0_23_7_2_1
 a4c0_23_7_2_2 a4c0_23_7_2_3 a3c0_23_7_1_0 a3c0_23_7_1_1 a3c0_23_7_1_2
 rb0_23_8_0 a4c0_23_8_1_0 a4c0_23_8_1_1 a4c0_23_8_1_2 a4c0_23_8_1_3
 a4c0_23_8_2_0 a4c0_23_8_2_1 a4c0_23_8_2_2 a4c0_23_8_2_3 a3c0_23_8_1_0
 a3c0_23_8_1_1 a3c0_23_8_1_2 rb0_23_9_0 a4c0_23_9_1_0 a4c0_23_9_1_1
 a4c0_23_9_1_2 a4c0_23_9_1_3 a4c0_23_9_2_0 a4c0_23_9_2_1 a4c0_23_9_2_2
 a4c0_23_9_2_3 a3c0_23_9_1_0 a3c0_23_9_1_1 a3c0_23_9_1_2 rb0_23_10_0
 a4c0_23_10_1_0 a4c0_23_10_1_1 a4c0_23_10_1_2 a4c0_23_10_1_3 a4c0_23_10_2_0
 a4c0_23_10_2_1 a4c0_23_10_2_2 a4c0_23_10_2_3 a3c0_23_10_1_0 a3c0_23_10_1_1
 a3c0_23_10_1_2 rb0_23_11_0 a4c0_23_11_1_0 a4c0_23_11_1_1 a4c0_23_11_1_2
 a4c0_23_11_1_3 a4c0_23_11_2_0 a4c0_23_11_2_1 a4c0_23_11_2_2 a4c0_23_11_2_3
 a3c0_23_11_1_0 a3c0_23_11_1_1 a3c0_23_11_1_2 rb0_24_0_0 rb0_24_0_1
 a3c0_24_0_1_0 a3c0_24_0_1_1 a3c0_24_0_1_2 a3c0_24_0_2_0 a3c0_24_0_2_1
 a3c0_24_0_2_2 a3c0_24_0_3_0 a3c0_24_0_3_1 a3c0_24_0_3_2 rb0_24_1_0
 rb0_24_1_1 a3c0_24_1_1_0 a3c0_24_1_1_1 a3c0_24_1_1_2 a3c0_24_1_2_0
 a3c0_24_1_2_1 a3c0_24_1_2_2 a3c0_24_1_3_0 a3c0_24_1_3_1 a3c0_24_1_3_2
 rb0_24_2_0 rb0_24_2_1 a3c0_24_2_1_0 a3c0_24_2_1_1 a3c0_24_2_1_2
 a3c0_24_2_2_0 a3c0_24_2_2_1 a3c0_24_2_2_2 a3c0_24_2_3_0 a3c0_24_2_3_1
 a3c0_24_2_3_2 rb0_24_3_0 rb0_24_3_1 a3c0_24_3_1_0 a3c0_24_3_1_1
 a3c0_24_3_1_2 a3c0_24_3_2_0 a3c0_24_3_2_1 a3c0_24_3_2_2 a3c0_24_3_3_0
 a3c0_24_3_3_1 a3c0_24_3_3_2 rb0_24_4_0 rb0_24_4_1 a3c0_24_4_1_0
 a3c0_24_4_1_1 a3c0_24_4_1_2 a3c0_24_4_2_0 a3c0_24_4_2_1 a3c0_24_4_2_2
 a3c0_24_4_3_0 a3c0_24_4_3_1 a3c0_24_4_3_2 rb0_24_5_0 rb0_24_5_1
 a3c0_24_5_1_0 a3c0_24_5_1_1 a3c0_24_5_1_2 a3c0_24_5_2_0 a3c0_24_5_2_1
 a3c0_24_5_2_2 a3c0_24_5_3_0 a3c0_24_5_3_1 a3c0_24_5_3_2 rb0_24_6_0
 rb0_24_6_1 a3c0_24_6_1_0 a3c0_24_6_1_1 a3c0_24_6_1_2 a3c0_24_6_2_0
 a3c0_24_6_2_1 a3c0_24_6_2_2 a3c0_24_6_3_0 a3c0_24_6_3_1 a3c0_24_6_3_2
 rb0_24_7_0 rb0_24_7_1 a3c0_24_7_1_0 a3c0_24_7_1_1 a3c0_24_7_1_2
 a3c0_24_7_2_0 a3c0_24_7_2_1 a3c0_24_7_2_2 a3c0_24_7_3_0 a3c0_24_7_3_1
 a3c0_24_7_3_2 rb0_24_8_0 rb0_24_8_1 a3c0_24_8_1_0 a3c0_24_8_1_1
 a3c0_24_8_1_2 a3c0_24_8_2_0 a3c0_24_8_2_1 a3c0_24_8_2_2 a3c0_24_8_3_0
 a3c0_24_8_3_1 a3c0_24_8_3_2 rb0_24_9_0 rb0_24_9_1 a3c0_24_9_1_0
 a3c0_24_9_1_1 a3c0_24_9_1_2 a3c0_24_9_2_0 a3c0_24_9_2_1 a3c0_24_9_2_2
 a3c0_24_9_3_0 a3c0_24_9_3_1 a3c0_24_9_3_2 rb0_24_10_0 rb0_24_10_1
 a3c0_24_10_1_0 a3c0_24_10_1_1 a3c0_24_10_1_2 a3c0_24_10_2_0 a3c0_24_10_2_1
 a3c0_24_10_2_2 a3c0_24_10_3_0 a3c0_24_10_3_1 a3c0_24_10_3_2 rb0_25_0_0
 rb0_25_0_1 rb0_25_0_2 rb0_25_0_3 rb0_25_0_4 rb0_25_0_5 a4c0_25_0_1_0
 a4c0_25_0_1_1 a4c0_25_0_1_2 a4c0_25_0_1_3 rb0_25_1_0 rb0_25_1_1 rb0_25_1_2
 rb0_25_1_3 rb0_25_1_4 rb0_25_1_5 a4c0_25_1_1_0 a4c0_25_1_1_1 a4c0_25_1_1_2
 a4c0_25_1_1_3 rb0_25_2_0 rb0_25_2_1 rb0_25_2_2 rb0_25_2_3 rb0_25_2_4
 rb0_25_2_5 a4c0_25_2_1_0 a4c0_25_2_1_1 a4c0_25_2_1_2 a4c0_25_2_1_3
 rb0_25_3_0 rb0_25_3_1 rb0_25_3_2 rb0_25_3_3 rb0_25_3_4 rb0_25_3_5
 a4c0_25_3_1_0 a4c0_25_3_1_1 a4c0_25_3_1_2 a4c0_25_3_1_3 rb0_25_4_0
 rb0_25_4_1 rb0_25_4_2 rb0_25_4_3 rb0_25_4_4 rb0_25_4_5 a4c0_25_4_1_0
 a4c0_25_4_1_1 a4c0_25_4_1_2 a4c0_25_4_1_3 rb0_25_5_0 rb0_25_5_1 rb0_25_5_2
 rb0_25_5_3 rb0_25_5_4 rb0_25_5_5 a4c0_25_5_1_0 a4c0_25_5_1_1 a4c0_25_5_1_2
 a4c0_25_5_1_3 rb0_25_6_0 rb0_25_6_1 rb0_25_6_2 rb0_25_6_3 rb0_25_6_4
 rb0_25_6_5 a4c0_25_6_1_0 a4c0_25_6_1_1 a4c0_25_6_1_2 a4c0_25_6_1_3
 rb0_25_7_0 rb0_25_7_1 rb0_25_7_2 rb0_25_7_3 rb0_25_7_4 rb0_25_7_5
 a4c0_25_7_1_0 a4c0_25_7_1_1 a4c0_25_7_1_2 a4c0_25_7_1_3 rb0_25_8_0
 rb0_25_8_1 rb0_25_8_2 rb0_25_8_3 rb0_25_8_4 rb0_25_8_5 a4c0_25_8_1_0
 a4c0_25_8_1_1 a4c0_25_8_1_2 a4c0_25_8_1_3 rb0_25_9_0 rb0_25_9_1 rb0_25_9_2
 rb0_25_9_3 rb0_25_9_4 rb0_25_9_5 a4c0_25_9_1_0 a4c0_25_9_1_1 a4c0_25_9_1_2
 a4c0_25_9_1_3 rb0_26_0_0 a4c0_26_0_1_0 a4c0_26_0_1_1 a4c0_26_0_1_2
 a4c0_26_0_1_3 a4c0_26_0_2_0 a4c0_26_0_2_1 a4c0_26_0_2_2 a4c0_26_0_2_3
 rb0_26_1_0 a4c0_26_1_1_0 a4c0_26_1_1_1 a4c0_26_1_1_2 a4c0_26_1_1_3
 a4c0_26_1_2_0 a4c0_26_1_2_1 a4c0_26_1_2_2 a4c0_26_1_2_3 rb0_26_2_0
 a4c0_26_2_1_0 a4c0_26_2_1_1 a4c0_26_2_1_2 a4c0_26_2_1_3 a4c0_26_2_2_0
 a4c0_26_2_2_1 a4c0_26_2_2_2 a4c0_26_2_2_3 rb0_26_3_0 a4c0_26_3_1_0
 a4c0_26_3_1_1 a4c0_26_3_1_2 a4c0_26_3_1_3 a4c0_26_3_2_0 a4c0_26_3_2_1
 a4c0_26_3_2_2 a4c0_26_3_2_3 rb0_26_4_0 a4c0_26_4_1_0 a4c0_26_4_1_1
 a4c0_26_4_1_2 a4c0_26_4_1_3 a4c0_26_4_2_0 a4c0_26_4_2_1 a4c0_26_4_2_2
 a4c0_26_4_2_3 rb0_26_5_0 a4c0_26_5_1_0 a4c0_26_5_1_1 a4c0_26_5_1_2
 a4c0_26_5_1_3 a4c0_26_5_2_0 a4c0_26_5_2_1 a4c0_26_5_2_2 a4c0_26_5_2_3
 rb0_26_6_0 a4c0_26_6_1_0 a4c0_26_6_1_1 a4c0_26_6_1_2 a4c0_26_6_1_3
 a4c0_26_6_2_0 a4c0_26_6_2_1 a4c0_26_6_2_2 a4c0_26_6_2_3 rb0_26_7_0
 a4c0_26_7_1_0 a4c0_26_7_1_1 a4c0_26_7_1_2 a4c0_26_7_1_3 a4c0_26_7_2_0
 a4c0_26_7_2_1 a4c0_26_7_2_2 a4c0_26_7_2_3 rb0_26_8_0 a4c0_26_8_1_0
 a4c0_26_8_1_1 a4c0_26_8_1_2 a4c0_26_8_1_3 a4c0_26_8_2_0 a4c0_26_8_2_1
 a4c0_26_8_2_2 a4c0_26_8_2_3 rb0_27_0_0 rb0_27_0_1 a3c0_27_0_1_0
 a3c0_27_0_1_1 a3c0_27_0_1_2 a3c0_27_0_2_0 a3c0_27_0_2_1 a3c0_27_0_2_2
 rb0_27_1_0 rb0_27_1_1 a3c0_27_1_1_0 a3c0_27_1_1_1 a3c0_27_1_1_2
 a3c0_27_1_2_0 a3c0_27_1_2_1 a3c0_27_1_2_2 rb0_27_2_0 rb0_27_2_1
 a3c0_27_2_1_0 a3c0_27_2_1_1 a3c0_27_2_1_2 a3c0_27_2_2_0 a3c0_27_2_2_1
 a3c0_27_2_2_2 rb0_27_3_0 rb0_27_3_1 a3c0_27_3_1_0 a3c0_27_3_1_1
 a3c0_27_3_1_2 a3c0_27_3_2_0 a3c0_27_3_2_1 a3c0_27_3_2_2 rb0_27_4_0
 rb0_27_4_1 a3c0_27_4_1_0 a3c0_27_4_1_1 a3c0_27_4_1_2 a3c0_27_4_2_0
 a3c0_27_4_2_1 a3c0_27_4_2_2 rb0_27_5_0 rb0_27_5_1 a3c0_27_5_1_0
 a3c0_27_5_1_1 a3c0_27_5_1_2 a3c0_27_5_2_0 a3c0_27_5_2_1 a3c0_27_5_2_2
 rb0_27_6_0 rb0_27_6_1 a3c0_27_6_1_0 a3c0_27_6_1_1 a3c0_27_6_1_2
 a3c0_27_6_2_0 a3c0_27_6_2_1 a3c0_27_6_2_2 rb0_27_7_0 rb0_27_7_1
 a3c0_27_7_1_0 a3c0_27_7_1_1 a3c0_27_7_1_2 a3c0_27_7_2_0 a3c0_27_7_2_1
 a3c0_27_7_2_2 rb0_28_0_0 a3c0_28_0_1_0 a3c0_28_0_1_1 a3c0_28_0_1_2
 a3c0_28_0_2_0 a3c0_28_0_2_1 a3c0_28_0_2_2 rb0_28_1_0 a3c0_28_1_1_0
 a3c0_28_1_1_1 a3c0_28_1_1_2 a3c0_28_1_2_0 a3c0_28_1_2_1 a3c0_28_1_2_2
 rb0_28_2_0 a3c0_28_2_1_0 a3c0_28_2_1_1 a3c0_28_2_1_2 a3c0_28_2_2_0
 a3c0_28_2_2_1 a3c0_28_2_2_2 rb0_28_3_0 a3c0_28_3_1_0 a3c0_28_3_1_1
 a3c0_28_3_1_2 a3c0_28_3_2_0 a3c0_28_3_2_1 a3c0_28_3_2_2 rb0_28_4_0
 a3c0_28_4_1_0 a3c0_28_4_1_1 a3c0_28_4_1_2 a3c0_28_4_2_0 a3c0_28_4_2_1
 a3c0_28_4_2_2 rb0_28_5_0 a3c0_28_5_1_0 a3c0_28_5_1_1 a3c0_28_5_1_2
 a3c0_28_5_2_0 a3c0_28_5_2_1 a3c0_28_5_2_2 rb0_28_6_0 a3c0_28_6_1_0
 a3c0_28_6_1_1 a3c0_28_6_1_2 a3c0_28_6_2_0 a3c0_28_6_2_1 a3c0_28_6_2_2
 rb0_29_0_0 rb0_29_0_1 rb0_29_0_2 rb0_29_0_3 rb0_29_0_4 rb0_29_0_5
 rb0_29_1_0 rb0_29_1_1 rb0_29_1_2 rb0_29_1_3 rb0_29_1_4 rb0_29_1_5
 rb0_29_2_0 rb0_29_2_1 rb0_29_2_2 rb0_29_2_3 rb0_29_2_4 rb0_29_2_5
 rb0_29_3_0 rb0_29_3_1 rb0_29_3_2 rb0_29_3_3 rb0_29_3_4 rb0_29_3_5
 rb0_29_4_0 rb0_29_4_1 rb0_29_4_2 rb0_29_4_3 rb0_29_4_4 rb0_29_4_5
 rb0_29_5_0 rb0_29_5_1 rb0_29_5_2 rb0_29_5_3 rb0_29_5_4 rb0_29_5_5
 rb0_30_0_0 rb0_30_0_1 rb0_30_0_2 rb0_30_0_3 rb0_30_0_4 rb0_30_1_0
 rb0_30_1_1 rb0_30_1_2 rb0_30_1_3 rb0_30_1_4 rb0_30_2_0 rb0_30_2_1
 rb0_30_2_2 rb0_30_2_3 rb0_30_2_4 rb0_30_3_0 rb0_30_3_1 rb0_30_3_2
 rb0_30_3_3 rb0_30_3_4 rb0_30_4_0 rb0_30_4_1 rb0_30_4_2 rb0_30_4_3
 rb0_30_4_4 rb0_31_0_0 rb0_31_0_1 rb0_31_0_2 rb0_31_0_3 rb0_31_1_0
 rb0_31_1_1 rb0_31_1_2 rb0_31_1_3 rb0_31_2_0 rb0_31_2_1 rb0_31_2_2
 rb0_31_2_3 rb0_31_3_0 rb0_31_3_1 rb0_31_3_2 rb0_31_3_3 rb0_32_0_0
 rb0_32_0_1 rb0_32_0_2 rb0_32_1_0 rb0_32_1_1 rb0_32_1_2 rb0_32_2_0
 rb0_32_2_1 rb0_32_2_2 rb0_33_0_0 rb0_33_0_1 rb0_33_1_0 rb0_33_1_1
 rb0_34_0_0 rb1_4_0_0 rb1_5_0_0 rb1_5_0_1 rb1_5_1_0 rb1_5_1_1 f1_6_0_1_0
 f1_6_0_1_1 f1_6_0_1_2 f1_6_1_1_0 f1_6_1_1_1 f1_6_1_1_2 f1_6_2_1_0
 f1_6_2_1_1 f1_6_2_1_2 rb1_7_0_0 rb1_7_0_1 rb1_7_0_2 rb1_7_0_3 rb1_7_1_0
 rb1_7_1_1 rb1_7_1_2 rb1_7_1_3 rb1_7_2_0 rb1_7_2_1 rb1_7_2_2 rb1_7_2_3
 rb1_7_3_0 rb1_7_3_1 rb1_7_3_2 rb1_7_3_3 rb1_8_0_0 f1_8_0_1_0 f1_8_0_1_1
 f1_8_0_1_2 f1_8_0_2_0 f1_8_0_2_1 f1_8_0_2_2 rb1_8_1_0 f1_8_1_1_0
 f1_8_1_1_1 f1_8_1_1_2 f1_8_1_2_0 f1_8_1_2_1 f1_8_1_2_2 rb1_8_2_0
 f1_8_2_1_0 f1_8_2_1_1 f1_8_2_1_2 f1_8_2_2_0 f1_8_2_2_1 f1_8_2_2_2
 rb1_8_3_0 f1_8_3_1_0 f1_8_3_1_1 f1_8_3_1_2 f1_8_3_2_0 f1_8_3_2_1
 f1_8_3_2_2 rb1_8_4_0 f1_8_4_1_0 f1_8_4_1_1 f1_8_4_1_2 f1_8_4_2_0
 f1_8_4_2_1 f1_8_4_2_2 rb1_8_5_0 f1_8_5_1_0 f1_8_5_1_1 f1_8_5_1_2
 f1_8_5_2_0 f1_8_5_2_1 f1_8_5_2_2 rb1_8_6_0 f1_8_6_1_0 f1_8_6_1_1
 f1_8_6_1_2 f1_8_6_2_0 f1_8_6_2_1 f1_8_6_2_2 rb1_9_0_0 f1_9_0_1_0
 f1_9_0_1_1 f1_9_0_1_2 rb1_9_1_0 f1_9_1_1_0 f1_9_1_1_1 f1_9_1_1_2 rb1_9_2_0
 f1_9_2_1_0 f1_9_2_1_1 f1_9_2_1_2 rb1_9_3_0 f1_9_3_1_0 f1_9_3_1_1
 f1_9_3_1_2 f1_10_0_1_0 f1_10_0_1_1 f1_10_0_1_2 f1_10_0_2_0 f1_10_0_2_1
 f1_10_0_2_2 f1_10_1_1_0 f1_10_1_1_1 f1_10_1_1_2 f1_10_1_2_0 f1_10_1_2_1
 f1_10_1_2_2 f1_10_2_1_0 f1_10_2_1_1 f1_10_2_1_2 f1_10_2_2_0 f1_10_2_2_1
 f1_10_2_2_2 f1_10_3_1_0 f1_10_3_1_1 f1_10_3_1_2 f1_10_3_2_0 f1_10_3_2_1
 f1_10_3_2_2 f1_10_4_1_0 f1_10_4_1_1 f1_10_4_1_2 f1_10_4_2_0 f1_10_4_2_1
 f1_10_4_2_2 f1_10_5_1_0 f1_10_5_1_1 f1_10_5_1_2 f1_10_5_2_0 f1_10_5_2_1
 f1_10_5_2_2 f1_11_0_1_0 f1_11_0_1_1 f1_11_0_1_2 f1_11_0_2_0 f1_11_0_2_1
 f1_11_0_2_2 f1_11_1_1_0 f1_11_1_1_1 f1_11_1_1_2 f1_11_1_2_0 f1_11_1_2_1
 f1_11_1_2_2 f1_11_2_1_0 f1_11_2_1_1 f1_11_2_1_2 f1_11_2_2_0 f1_11_2_2_1
 f1_11_2_2_2 f1_11_3_1_0 f1_11_3_1_1 f1_11_3_1_2 f1_11_3_2_0 f1_11_3_2_1
 f1_11_3_2_2 f1_11_4_1_0 f1_11_4_1_1 f1_11_4_1_2 f1_11_4_2_0 f1_11_4_2_1
 f1_11_4_2_2 f1_11_5_1_0 f1_11_5_1_1 f1_11_5_1_2 f1_11_5_2_0 f1_11_5_2_1
 f1_11_5_2_2 f1_12_0_1_0 f1_12_0_1_1 f1_12_0_1_2 f1_12_0_2_0 f1_12_0_2_1
 f1_12_0_2_2 f1_12_1_1_0 f1_12_1_1_1 f1_12_1_1_2 f1_12_1_2_0 f1_12_1_2_1
 f1_12_1_2_2 f1_12_2_1_0 f1_12_2_1_1 f1_12_2_1_2 f1_12_2_2_0 f1_12_2_2_1
 f1_12_2_2_2 f1_12_3_1_0 f1_12_3_1_1 f1_12_3_1_2 f1_12_3_2_0 f1_12_3_2_1
 f1_12_3_2_2 f1_12_4_1_0 f1_12_4_1_1 f1_12_4_1_2 f1_12_4_2_0 f1_12_4_2_1
 f1_12_4_2_2 f1_12_5_1_0 f1_12_5_1_1 f1_12_5_1_2 f1_12_5_2_0 f1_12_5_2_1
 f1_12_5_2_2 rb1_13_0_0 f1_13_0_1_0 f1_13_0_1_1 f1_13_0_1_2 f1_13_0_2_0
 f1_13_0_2_1 f1_13_0_2_2 rb1_13_1_0 f1_13_1_1_0 f1_13_1_1_1 f1_13_1_1_2
 f1_13_1_2_0 f1_13_1_2_1 f1_13_1_2_2 rb1_13_2_0 f1_13_2_1_0 f1_13_2_1_1
 f1_13_2_1_2 f1_13_2_2_0 f1_13_2_2_1 f1_13_2_2_2 rb1_13_3_0 f1_13_3_1_0
 f1_13_3_1_1 f1_13_3_1_2 f1_13_3_2_0 f1_13_3_2_1 f1_13_3_2_2 rb1_13_4_0
 f1_13_4_1_0 f1_13_4_1_1 f1_13_4_1_2 f1_13_4_2_0 f1_13_4_2_1 f1_13_4_2_2
 rb1_13_5_0 f1_13_5_1_0 f1_13_5_1_1 f1_13_5_1_2 f1_13_5_2_0 f1_13_5_2_1
 f1_13_5_2_2 rb1_13_6_0 f1_13_6_1_0 f1_13_6_1_1 f1_13_6_1_2 f1_13_6_2_0
 f1_13_6_2_1 f1_13_6_2_2 f1_14_0_1_0 f1_14_0_1_1 f1_14_0_1_2 f1_14_0_2_0
 f1_14_0_2_1 f1_14_0_2_2 f1_14_0_3_0 f1_14_0_3_1 f1_14_0_3_2 f1_14_1_1_0
 f1_14_1_1_1 f1_14_1_1_2 f1_14_1_2_0 f1_14_1_2_1 f1_14_1_2_2 f1_14_1_3_0
 f1_14_1_3_1 f1_14_1_3_2 f1_14_2_1_0 f1_14_2_1_1 f1_14_2_1_2 f1_14_2_2_0
 f1_14_2_2_1 f1_14_2_2_2 f1_14_2_3_0 f1_14_2_3_1 f1_14_2_3_2 f1_14_3_1_0
 f1_14_3_1_1 f1_14_3_1_2 f1_14_3_2_0 f1_14_3_2_1 f1_14_3_2_2 f1_14_3_3_0
 f1_14_3_3_1 f1_14_3_3_2 f1_14_4_1_0 f1_14_4_1_1 f1_14_4_1_2 f1_14_4_2_0
 f1_14_4_2_1 f1_14_4_2_2 f1_14_4_3_0 f1_14_4_3_1 f1_14_4_3_2 f1_14_5_1_0
 f1_14_5_1_1 f1_14_5_1_2 f1_14_5_2_0 f1_14_5_2_1 f1_14_5_2_2 f1_14_5_3_0
 f1_14_5_3_1 f1_14_5_3_2 f1_14_6_1_0 f1_14_6_1_1 f1_14_6_1_2 f1_14_6_2_0
 f1_14_6_2_1 f1_14_6_2_2 f1_14_6_3_0 f1_14_6_3_1 f1_14_6_3_2 f1_14_7_1_0
 f1_14_7_1_1 f1_14_7_1_2 f1_14_7_2_0 f1_14_7_2_1 f1_14_7_2_2 f1_14_7_3_0
 f1_14_7_3_1 f1_14_7_3_2 f1_14_8_1_0 f1_14_8_1_1 f1_14_8_1_2 f1_14_8_2_0
 f1_14_8_2_1 f1_14_8_2_2 f1_14_8_3_0 f1_14_8_3_1 f1_14_8_3_2 rb1_15_0_0
 f1_15_0_1_0 f1_15_0_1_1 f1_15_0_1_2 rb1_15_1_0 f1_15_1_1_0 f1_15_1_1_1
 f1_15_1_1_2 rb1_15_2_0 f1_15_2_1_0 f1_15_2_1_1 f1_15_2_1_2 rb1_15_3_0
 f1_15_3_1_0 f1_15_3_1_1 f1_15_3_1_2 rb1_16_0_0 rb1_16_0_1 rb1_16_0_2
 rb1_16_0_3 a3c1_16_0_1_0 a3c1_16_0_1_1 a3c1_16_0_1_2 rb1_16_1_0 rb1_16_1_1
 rb1_16_1_2 rb1_16_1_3 a3c1_16_1_1_0 a3c1_16_1_1_1 a3c1_16_1_1_2 rb1_16_2_0
 rb1_16_2_1 rb1_16_2_2 rb1_16_2_3 a3c1_16_2_1_0 a3c1_16_2_1_1 a3c1_16_2_1_2
 rb1_16_3_0 rb1_16_3_1 rb1_16_3_2 rb1_16_3_3 a3c1_16_3_1_0 a3c1_16_3_1_1
 a3c1_16_3_1_2 rb1_16_4_0 rb1_16_4_1 rb1_16_4_2 rb1_16_4_3 a3c1_16_4_1_0
 a3c1_16_4_1_1 a3c1_16_4_1_2 rb1_16_5_0 rb1_16_5_1 rb1_16_5_2 rb1_16_5_3
 a3c1_16_5_1_0 a3c1_16_5_1_1 a3c1_16_5_1_2 rb1_16_6_0 rb1_16_6_1 rb1_16_6_2
 rb1_16_6_3 a3c1_16_6_1_0 a3c1_16_6_1_1 a3c1_16_6_1_2 rb1_17_0_0
 a4c1_17_0_1_0 a4c1_17_0_1_1 a4c1_17_0_1_2 a4c1_17_0_1_3 a4c1_17_0_2_0
 a4c1_17_0_2_1 a4c1_17_0_2_2 a4c1_17_0_2_3 rb1_17_1_0 a4c1_17_1_1_0
 a4c1_17_1_1_1 a4c1_17_1_1_2 a4c1_17_1_1_3 a4c1_17_1_2_0 a4c1_17_1_2_1
 a4c1_17_1_2_2 a4c1_17_1_2_3 rb1_17_2_0 a4c1_17_2_1_0 a4c1_17_2_1_1
 a4c1_17_2_1_2 a4c1_17_2_1_3 a4c1_17_2_2_0 a4c1_17_2_2_1 a4c1_17_2_2_2
 a4c1_17_2_2_3 rb1_17_3_0 a4c1_17_3_1_0 a4c1_17_3_1_1 a4c1_17_3_1_2
 a4c1_17_3_1_3 a4c1_17_3_2_0 a4c1_17_3_2_1 a4c1_17_3_2_2 a4c1_17_3_2_3
 rb1_17_4_0 a4c1_17_4_1_0 a4c1_17_4_1_1 a4c1_17_4_1_2 a4c1_17_4_1_3
 a4c1_17_4_2_0 a4c1_17_4_2_1 a4c1_17_4_2_2 a4c1_17_4_2_3 rb1_17_5_0
 a4c1_17_5_1_0 a4c1_17_5_1_1 a4c1_17_5_1_2 a4c1_17_5_1_3 a4c1_17_5_2_0
 a4c1_17_5_2_1 a4c1_17_5_2_2 a4c1_17_5_2_3 rb1_17_6_0 a4c1_17_6_1_0
 a4c1_17_6_1_1 a4c1_17_6_1_2 a4c1_17_6_1_3 a4c1_17_6_2_0 a4c1_17_6_2_1
 a4c1_17_6_2_2 a4c1_17_6_2_3 rb1_17_7_0 a4c1_17_7_1_0 a4c1_17_7_1_1
 a4c1_17_7_1_2 a4c1_17_7_1_3 a4c1_17_7_2_0 a4c1_17_7_2_1 a4c1_17_7_2_2
 a4c1_17_7_2_3 rb1_17_8_0 a4c1_17_8_1_0 a4c1_17_8_1_1 a4c1_17_8_1_2
 a4c1_17_8_1_3 a4c1_17_8_2_0 a4c1_17_8_2_1 a4c1_17_8_2_2 a4c1_17_8_2_3
 a4c1_18_0_1_0 a4c1_18_0_1_1 a4c1_18_0_1_2 a4c1_18_0_1_3 a4c1_18_0_2_0
 a4c1_18_0_2_1 a4c1_18_0_2_2 a4c1_18_0_2_3 a4c1_18_1_1_0 a4c1_18_1_1_1
 a4c1_18_1_1_2 a4c1_18_1_1_3 a4c1_18_1_2_0 a4c1_18_1_2_1 a4c1_18_1_2_2
 a4c1_18_1_2_3 a4c1_18_2_1_0 a4c1_18_2_1_1 a4c1_18_2_1_2 a4c1_18_2_1_3
 a4c1_18_2_2_0 a4c1_18_2_2_1 a4c1_18_2_2_2 a4c1_18_2_2_3 a4c1_18_3_1_0
 a4c1_18_3_1_1 a4c1_18_3_1_2 a4c1_18_3_1_3 a4c1_18_3_2_0 a4c1_18_3_2_1
 a4c1_18_3_2_2 a4c1_18_3_2_3 a4c1_18_4_1_0 a4c1_18_4_1_1 a4c1_18_4_1_2
 a4c1_18_4_1_3 a4c1_18_4_2_0 a4c1_18_4_2_1 a4c1_18_4_2_2 a4c1_18_4_2_3
 a4c1_18_5_1_0 a4c1_18_5_1_1 a4c1_18_5_1_2 a4c1_18_5_1_3 a4c1_18_5_2_0
 a4c1_18_5_2_1 a4c1_18_5_2_2 a4c1_18_5_2_3 a4c1_18_6_1_0 a4c1_18_6_1_1
 a4c1_18_6_1_2 a4c1_18_6_1_3 a4c1_18_6_2_0 a4c1_18_6_2_1 a4c1_18_6_2_2
 a4c1_18_6_2_3 a4c1_18_7_1_0 a4c1_18_7_1_1 a4c1_18_7_1_2 a4c1_18_7_1_3
 a4c1_18_7_2_0 a4c1_18_7_2_1 a4c1_18_7_2_2 a4c1_18_7_2_3 rb1_19_0_0
 rb1_19_0_1 rb1_19_0_2 rb1_19_0_3 rb1_19_0_4 f1_19_0_1_0 f1_19_0_1_1
 f1_19_0_1_2 rb1_19_1_0 rb1_19_1_1 rb1_19_1_2 rb1_19_1_3 rb1_19_1_4
 f1_19_1_1_0 f1_19_1_1_1 f1_19_1_1_2 rb1_19_2_0 rb1_19_2_1 rb1_19_2_2
 rb1_19_2_3 rb1_19_2_4 f1_19_2_1_0 f1_19_2_1_1 f1_19_2_1_2 rb1_19_3_0
 rb1_19_3_1 rb1_19_3_2 rb1_19_3_3 rb1_19_3_4 f1_19_3_1_0 f1_19_3_1_1
 f1_19_3_1_2 rb1_19_4_0 rb1_19_4_1 rb1_19_4_2 rb1_19_4_3 rb1_19_4_4
 f1_19_4_1_0 f1_19_4_1_1 f1_19_4_1_2 rb1_19_5_0 rb1_19_5_1 rb1_19_5_2
 rb1_19_5_3 rb1_19_5_4 f1_19_5_1_0 f1_19_5_1_1 f1_19_5_1_2 rb1_19_6_0
 rb1_19_6_1 rb1_19_6_2 rb1_19_6_3 rb1_19_6_4 f1_19_6_1_0 f1_19_6_1_1
 f1_19_6_1_2 rb1_19_7_0 rb1_19_7_1 rb1_19_7_2 rb1_19_7_3 rb1_19_7_4
 f1_19_7_1_0 f1_19_7_1_1 f1_19_7_1_2 rb1_20_0_0 rb1_20_0_1 rb1_20_0_2
 a3c1_20_0_1_0 a3c1_20_0_1_1 a3c1_20_0_1_2 a3c1_20_0_2_0 a3c1_20_0_2_1
 a3c1_20_0_2_2 rb1_20_1_0 rb1_20_1_1 rb1_20_1_2 a3c1_20_1_1_0 a3c1_20_1_1_1
 a3c1_20_1_1_2 a3c1_20_1_2_0 a3c1_20_1_2_1 a3c1_20_1_2_2 rb1_20_2_0
 rb1_20_2_1 rb1_20_2_2 a3c1_20_2_1_0 a3c1_20_2_1_1 a3c1_20_2_1_2
 a3c1_20_2_2_0 a3c1_20_2_2_1 a3c1_20_2_2_2 rb1_20_3_0 rb1_20_3_1 rb1_20_3_2
 a3c1_20_3_1_0 a3c1_20_3_1_1 a3c1_20_3_1_2 a3c1_20_3_2_0 a3c1_20_3_2_1
 a3c1_20_3_2_2 rb1_20_4_0 rb1_20_4_1 rb1_20_4_2 a3c1_20_4_1_0 a3c1_20_4_1_1
 a3c1_20_4_1_2 a3c1_20_4_2_0 a3c1_20_4_2_1 a3c1_20_4_2_2 rb1_20_5_0
 rb1_20_5_1 rb1_20_5_2 a3c1_20_5_1_0 a3c1_20_5_1_1 a3c1_20_5_1_2
 a3c1_20_5_2_0 a3c1_20_5_2_1 a3c1_20_5_2_2 rb1_20_6_0 rb1_20_6_1 rb1_20_6_2
 a3c1_20_6_1_0 a3c1_20_6_1_1 a3c1_20_6_1_2 a3c1_20_6_2_0 a3c1_20_6_2_1
 a3c1_20_6_2_2 rb1_20_7_0 rb1_20_7_1 rb1_20_7_2 a3c1_20_7_1_0 a3c1_20_7_1_1
 a3c1_20_7_1_2 a3c1_20_7_2_0 a3c1_20_7_2_1 a3c1_20_7_2_2 rb1_20_8_0
 rb1_20_8_1 rb1_20_8_2 a3c1_20_8_1_0 a3c1_20_8_1_1 a3c1_20_8_1_2
 a3c1_20_8_2_0 a3c1_20_8_2_1 a3c1_20_8_2_2 rb1_21_0_0 rb1_21_0_1 rb1_21_0_2
 rb1_21_0_3 rb1_21_0_4 rb1_21_0_5 rb1_21_0_6 rb1_21_0_7 rb1_21_1_0
 rb1_21_1_1 rb1_21_1_2 rb1_21_1_3 rb1_21_1_4 rb1_21_1_5 rb1_21_1_6
 rb1_21_1_7 rb1_21_2_0 rb1_21_2_1 rb1_21_2_2 rb1_21_2_3 rb1_21_2_4
 rb1_21_2_5 rb1_21_2_6 rb1_21_2_7 rb1_21_3_0 rb1_21_3_1 rb1_21_3_2
 rb1_21_3_3 rb1_21_3_4 rb1_21_3_5 rb1_21_3_6 rb1_21_3_7 rb1_21_4_0
 rb1_21_4_1 rb1_21_4_2 rb1_21_4_3 rb1_21_4_4 rb1_21_4_5 rb1_21_4_6
 rb1_21_4_7 rb1_21_5_0 rb1_21_5_1 rb1_21_5_2 rb1_21_5_3 rb1_21_5_4
 rb1_21_5_5 rb1_21_5_6 rb1_21_5_7 rb1_21_6_0 rb1_21_6_1 rb1_21_6_2
 rb1_21_6_3 rb1_21_6_4 rb1_21_6_5 rb1_21_6_6 rb1_21_6_7 rb1_21_7_0
 rb1_21_7_1 rb1_21_7_2 rb1_21_7_3 rb1_21_7_4 rb1_21_7_5 rb1_21_7_6
 rb1_21_7_7 a4c1_22_0_1_0 a4c1_22_0_1_1 a4c1_22_0_1_2 a4c1_22_0_1_3
 a3c1_22_0_1_0 a3c1_22_0_1_1 a3c1_22_0_1_2 a4c1_22_1_1_0 a4c1_22_1_1_1
 a4c1_22_1_1_2 a4c1_22_1_1_3 a3c1_22_1_1_0 a3c1_22_1_1_1 a3c1_22_1_1_2
 a4c1_22_2_1_0 a4c1_22_2_1_1 a4c1_22_2_1_2 a4c1_22_2_1_3 a3c1_22_2_1_0
 a3c1_22_2_1_1 a3c1_22_2_1_2 a4c1_22_3_1_0 a4c1_22_3_1_1 a4c1_22_3_1_2
 a4c1_22_3_1_3 a3c1_22_3_1_0 a3c1_22_3_1_1 a3c1_22_3_1_2 a4c1_22_4_1_0
 a4c1_22_4_1_1 a4c1_22_4_1_2 a4c1_22_4_1_3 a3c1_22_4_1_0 a3c1_22_4_1_1
 a3c1_22_4_1_2 a4c1_22_5_1_0 a4c1_22_5_1_1 a4c1_22_5_1_2 a4c1_22_5_1_3
 a3c1_22_5_1_0 a3c1_22_5_1_1 a3c1_22_5_1_2 a4c1_22_6_1_0 a4c1_22_6_1_1
 a4c1_22_6_1_2 a4c1_22_6_1_3 a3c1_22_6_1_0 a3c1_22_6_1_1 a3c1_22_6_1_2
 rb1_23_0_0 rb1_23_0_1 rb1_23_0_2 a4c1_23_0_1_0 a4c1_23_0_1_1 a4c1_23_0_1_2
 a4c1_23_0_1_3 rb1_23_1_0 rb1_23_1_1 rb1_23_1_2 a4c1_23_1_1_0 a4c1_23_1_1_1
 a4c1_23_1_1_2 a4c1_23_1_1_3 rb1_23_2_0 rb1_23_2_1 rb1_23_2_2 a4c1_23_2_1_0
 a4c1_23_2_1_1 a4c1_23_2_1_2 a4c1_23_2_1_3 rb1_23_3_0 rb1_23_3_1 rb1_23_3_2
 a4c1_23_3_1_0 a4c1_23_3_1_1 a4c1_23_3_1_2 a4c1_23_3_1_3 rb1_23_4_0
 rb1_23_4_1 rb1_23_4_2 a4c1_23_4_1_0 a4c1_23_4_1_1 a4c1_23_4_1_2
 a4c1_23_4_1_3 rb1_23_5_0 rb1_23_5_1 rb1_23_5_2 a4c1_23_5_1_0 a4c1_23_5_1_1
 a4c1_23_5_1_2 a4c1_23_5_1_3 rb1_23_6_0 rb1_23_6_1 rb1_23_6_2 a4c1_23_6_1_0
 a4c1_23_6_1_1 a4c1_23_6_1_2 a4c1_23_6_1_3 rb1_24_0_0 rb1_24_0_1 rb1_24_0_2
 rb1_24_0_3 rb1_24_0_4 rb1_24_0_5 rb1_24_0_6 rb1_24_0_7 rb1_24_1_0
 rb1_24_1_1 rb1_24_1_2 rb1_24_1_3 rb1_24_1_4 rb1_24_1_5 rb1_24_1_6
 rb1_24_1_7 rb1_24_2_0 rb1_24_2_1 rb1_24_2_2 rb1_24_2_3 rb1_24_2_4
 rb1_24_2_5 rb1_24_2_6 rb1_24_2_7 rb1_24_3_0 rb1_24_3_1 rb1_24_3_2
 rb1_24_3_3 rb1_24_3_4 rb1_24_3_5 rb1_24_3_6 rb1_24_3_7 rb1_24_4_0
 rb1_24_4_1 rb1_24_4_2 rb1_24_4_3 rb1_24_4_4 rb1_24_4_5 rb1_24_4_6
 rb1_24_4_7 rb1_24_5_0 rb1_24_5_1 rb1_24_5_2 rb1_24_5_3 rb1_24_5_4
 rb1_24_5_5 rb1_24_5_6 rb1_24_5_7 rb1_24_6_0 rb1_24_6_1 rb1_24_6_2
 rb1_24_6_3 rb1_24_6_4 rb1_24_6_5 rb1_24_6_6 rb1_24_6_7 rb1_24_7_0
 rb1_24_7_1 rb1_24_7_2 rb1_24_7_3 rb1_24_7_4 rb1_24_7_5 rb1_24_7_6
 rb1_24_7_7 rb1_25_0_0 rb1_25_0_1 rb1_25_0_2 rb1_25_0_3 rb1_25_0_4
 rb1_25_0_5 rb1_25_0_6 rb1_25_0_7 rb1_25_1_0 rb1_25_1_1 rb1_25_1_2
 rb1_25_1_3 rb1_25_1_4 rb1_25_1_5 rb1_25_1_6 rb1_25_1_7 rb1_25_2_0
 rb1_25_2_1 rb1_25_2_2 rb1_25_2_3 rb1_25_2_4 rb1_25_2_5 rb1_25_2_6
 rb1_25_2_7 rb1_25_3_0 rb1_25_3_1 rb1_25_3_2 rb1_25_3_3 rb1_25_3_4
 rb1_25_3_5 rb1_25_3_6 rb1_25_3_7 rb1_25_4_0 rb1_25_4_1 rb1_25_4_2
 rb1_25_4_3 rb1_25_4_4 rb1_25_4_5 rb1_25_4_6 rb1_25_4_7 rb1_25_5_0
 rb1_25_5_1 rb1_25_5_2 rb1_25_5_3 rb1_25_5_4 rb1_25_5_5 rb1_25_5_6
 rb1_25_5_7 rb1_25_6_0 rb1_25_6_1 rb1_25_6_2 rb1_25_6_3 rb1_25_6_4
 rb1_25_6_5 rb1_25_6_6 rb1_25_6_7 rb1_25_7_0 rb1_25_7_1 rb1_25_7_2
 rb1_25_7_3 rb1_25_7_4 rb1_25_7_5 rb1_25_7_6 rb1_25_7_7 rb1_26_0_0
 a4c1_26_0_1_0 a4c1_26_0_1_1 a4c1_26_0_1_2 a4c1_26_0_1_3 rb1_26_1_0
 a4c1_26_1_1_0 a4c1_26_1_1_1 a4c1_26_1_1_2 a4c1_26_1_1_3 rb1_26_2_0
 a4c1_26_2_1_0 a4c1_26_2_1_1 a4c1_26_2_1_2 a4c1_26_2_1_3 rb1_26_3_0
 a4c1_26_3_1_0 a4c1_26_3_1_1 a4c1_26_3_1_2 a4c1_26_3_1_3 rb1_26_4_0
 a4c1_26_4_1_0 a4c1_26_4_1_1 a4c1_26_4_1_2 a4c1_26_4_1_3 rb1_27_0_0
 rb1_27_0_1 rb1_27_0_2 a3c1_27_0_1_0 a3c1_27_0_1_1 a3c1_27_0_1_2 rb1_27_1_0
 rb1_27_1_1 rb1_27_1_2 a3c1_27_1_1_0 a3c1_27_1_1_1 a3c1_27_1_1_2 rb1_27_2_0
 rb1_27_2_1 rb1_27_2_2 a3c1_27_2_1_0 a3c1_27_2_1_1 a3c1_27_2_1_2 rb1_27_3_0
 rb1_27_3_1 rb1_27_3_2 a3c1_27_3_1_0 a3c1_27_3_1_1 a3c1_27_3_1_2 rb1_27_4_0
 rb1_27_4_1 rb1_27_4_2 a3c1_27_4_1_0 a3c1_27_4_1_1 a3c1_27_4_1_2 rb1_27_5_0
 rb1_27_5_1 rb1_27_5_2 a3c1_27_5_1_0 a3c1_27_5_1_1 a3c1_27_5_1_2 rb1_28_0_0
 rb1_28_0_1 a3c1_28_0_1_0 a3c1_28_0_1_1 a3c1_28_0_1_2 rb1_28_1_0 rb1_28_1_1
 a3c1_28_1_1_0 a3c1_28_1_1_1 a3c1_28_1_1_2 rb1_28_2_0 rb1_28_2_1
 a3c1_28_2_1_0 a3c1_28_2_1_1 a3c1_28_2_1_2 rb1_28_3_0 rb1_28_3_1
 a3c1_28_3_1_0 a3c1_28_3_1_1 a3c1_28_3_1_2 rb1_28_4_0 rb1_28_4_1
 a3c1_28_4_1_0 a3c1_28_4_1_1 a3c1_28_4_1_2 rb1_29_0_0 rb1_29_0_1 rb1_29_0_2
 rb1_29_0_3 rb1_29_0_4 rb1_29_0_5 rb1_29_1_0 rb1_29_1_1 rb1_29_1_2
 rb1_29_1_3 rb1_29_1_4 rb1_29_1_5 rb1_29_2_0 rb1_29_2_1 rb1_29_2_2
 rb1_29_2_3 rb1_29_2_4 rb1_29_2_5 rb1_29_3_0 rb1_29_3_1 rb1_29_3_2
 rb1_29_3_3 rb1_29_3_4 rb1_29_3_5 rb1_29_4_0 rb1_29_4_1 rb1_29_4_2
 rb1_29_4_3 rb1_29_4_4 rb1_29_4_5 rb1_29_5_0 rb1_29_5_1 rb1_29_5_2
 rb1_29_5_3 rb1_29_5_4 rb1_29_5_5 rb1_30_0_0 a4c1_30_0_1_0 a4c1_30_0_1_1
 a4c1_30_0_1_2 a4c1_30_0_1_3 rb1_30_1_0 a4c1_30_1_1_0 a4c1_30_1_1_1
 a4c1_30_1_1_2 a4c1_30_1_1_3 rb1_30_2_0 a4c1_30_2_1_0 a4c1_30_2_1_1
 a4c1_30_2_1_2 a4c1_30_2_1_3 rb1_30_3_0 a4c1_30_3_1_0 a4c1_30_3_1_1
 a4c1_30_3_1_2 a4c1_30_3_1_3 rb1_30_4_0 a4c1_30_4_1_0 a4c1_30_4_1_1
 a4c1_30_4_1_2 a4c1_30_4_1_3 rb1_31_0_0 a3c1_31_0_1_0 a3c1_31_0_1_1
 a3c1_31_0_1_2 rb1_31_1_0 a3c1_31_1_1_0 a3c1_31_1_1_1 a3c1_31_1_1_2
 rb1_31_2_0 a3c1_31_2_1_0 a3c1_31_2_1_1 a3c1_31_2_1_2 rb1_31_3_0
 a3c1_31_3_1_0 a3c1_31_3_1_1 a3c1_31_3_1_2 rb1_32_0_0 rb1_32_0_1 rb1_32_0_2
 rb1_32_1_0 rb1_32_1_1 rb1_32_1_2 rb1_32_2_0 rb1_32_2_1 rb1_32_2_2
 rb1_33_0_0 rb1_33_0_1 rb1_33_1_0 rb1_33_1_1 rb1_34_0_0 rb2_4_0_0
 f2_5_0_1_0 f2_5_0_1_1 f2_5_0_1_2 f2_5_1_1_0 f2_5_1_1_1 f2_5_1_1_2
 f2_5_2_1_0 f2_5_2_1_1 f2_5_2_1_2 rb2_6_0_0 f2_7_0_1_0 f2_7_0_1_1
 f2_7_0_1_2 f2_7_0_2_0 f2_7_0_2_1 f2_7_0_2_2 f2_7_1_1_0 f2_7_1_1_1
 f2_7_1_1_2 f2_7_1_2_0 f2_7_1_2_1 f2_7_1_2_2 f2_7_2_1_0 f2_7_2_1_1
 f2_7_2_1_2 f2_7_2_2_0 f2_7_2_2_1 f2_7_2_2_2 f2_7_3_1_0 f2_7_3_1_1
 f2_7_3_1_2 f2_7_3_2_0 f2_7_3_2_1 f2_7_3_2_2 f2_7_4_1_0 f2_7_4_1_1
 f2_7_4_1_2 f2_7_4_2_0 f2_7_4_2_1 f2_7_4_2_2 f2_7_5_1_0 f2_7_5_1_1
 f2_7_5_1_2 f2_7_5_2_0 f2_7_5_2_1 f2_7_5_2_2 rb2_8_0_0 f2_8_0_1_0
 f2_8_0_1_1 f2_8_0_1_2 rb2_8_1_0 f2_8_1_1_0 f2_8_1_1_1 f2_8_1_1_2 rb2_8_2_0
 f2_8_2_1_0 f2_8_2_1_1 f2_8_2_1_2 rb2_8_3_0 f2_8_3_1_0 f2_8_3_1_1
 f2_8_3_1_2 rb2_9_0_0 f2_9_0_1_0 f2_9_0_1_1 f2_9_0_1_2 rb2_9_1_0 f2_9_1_1_0
 f2_9_1_1_1 f2_9_1_1_2 rb2_9_2_0 f2_9_2_1_0 f2_9_2_1_1 f2_9_2_1_2 rb2_9_3_0
 f2_9_3_1_0 f2_9_3_1_1 f2_9_3_1_2 rb2_10_0_0 f2_10_0_1_0 f2_10_0_1_1
 f2_10_0_1_2 rb2_10_1_0 f2_10_1_1_0 f2_10_1_1_1 f2_10_1_1_2 rb2_10_2_0
 f2_10_2_1_0 f2_10_2_1_1 f2_10_2_1_2 rb2_10_3_0 f2_10_3_1_0 f2_10_3_1_1
 f2_10_3_1_2 rb2_11_0_0 f2_11_0_1_0 f2_11_0_1_1 f2_11_0_1_2 rb2_11_1_0
 f2_11_1_1_0 f2_11_1_1_1 f2_11_1_1_2 rb2_11_2_0 f2_11_2_1_0 f2_11_2_1_1
 f2_11_2_1_2 rb2_11_3_0 f2_11_3_1_0 f2_11_3_1_1 f2_11_3_1_2 rb2_12_0_0
 f2_12_0_1_0 f2_12_0_1_1 f2_12_0_1_2 rb2_12_1_0 f2_12_1_1_0 f2_12_1_1_1
 f2_12_1_1_2 rb2_12_2_0 f2_12_2_1_0 f2_12_2_1_1 f2_12_2_1_2 rb2_12_3_0
 f2_12_3_1_0 f2_12_3_1_1 f2_12_3_1_2 a3c2_13_0_1_0 a3c2_13_0_1_1
 a3c2_13_0_1_2 f2_13_0_1_0 f2_13_0_1_1 f2_13_0_1_2 a3c2_13_1_1_0
 a3c2_13_1_1_1 a3c2_13_1_1_2 f2_13_1_1_0 f2_13_1_1_1 f2_13_1_1_2
 a3c2_13_2_1_0 a3c2_13_2_1_1 a3c2_13_2_1_2 f2_13_2_1_0 f2_13_2_1_1
 f2_13_2_1_2 a3c2_13_3_1_0 a3c2_13_3_1_1 a3c2_13_3_1_2 f2_13_3_1_0
 f2_13_3_1_1 f2_13_3_1_2 a3c2_13_4_1_0 a3c2_13_4_1_1 a3c2_13_4_1_2
 f2_13_4_1_0 f2_13_4_1_1 f2_13_4_1_2 a3c2_13_5_1_0 a3c2_13_5_1_1
 a3c2_13_5_1_2 f2_13_5_1_0 f2_13_5_1_1 f2_13_5_1_2 rb2_14_0_0 rb2_14_0_1
 rb2_14_0_2 rb2_14_0_3 rb2_14_1_0 rb2_14_1_1 rb2_14_1_2 rb2_14_1_3
 rb2_14_2_0 rb2_14_2_1 rb2_14_2_2 rb2_14_2_3 rb2_14_3_0 rb2_14_3_1
 rb2_14_3_2 rb2_14_3_3 rb2_15_0_0 rb2_15_0_1 rb2_15_1_0 rb2_15_1_1
 a3c2_16_0_1_0 a3c2_16_0_1_1 a3c2_16_0_1_2 a3c2_16_0_2_0 a3c2_16_0_2_1
 a3c2_16_0_2_2 a3c2_16_1_1_0 a3c2_16_1_1_1 a3c2_16_1_1_2 a3c2_16_1_2_0
 a3c2_16_1_2_1 a3c2_16_1_2_2 a3c2_16_2_1_0 a3c2_16_2_1_1 a3c2_16_2_1_2
 a3c2_16_2_2_0 a3c2_16_2_2_1 a3c2_16_2_2_2 a3c2_16_3_1_0 a3c2_16_3_1_1
 a3c2_16_3_1_2 a3c2_16_3_2_0 a3c2_16_3_2_1 a3c2_16_3_2_2 a3c2_16_4_1_0
 a3c2_16_4_1_1 a3c2_16_4_1_2 a3c2_16_4_2_0 a3c2_16_4_2_1 a3c2_16_4_2_2
 a3c2_16_5_1_0 a3c2_16_5_1_1 a3c2_16_5_1_2 a3c2_16_5_2_0 a3c2_16_5_2_1
 a3c2_16_5_2_2 rb2_17_0_0 a4c2_17_0_1_0 a4c2_17_0_1_1 a4c2_17_0_1_2
 a4c2_17_0_1_3 rb2_17_1_0 a4c2_17_1_1_0 a4c2_17_1_1_1 a4c2_17_1_1_2
 a4c2_17_1_1_3 rb2_17_2_0 a4c2_17_2_1_0 a4c2_17_2_1_1 a4c2_17_2_1_2
 a4c2_17_2_1_3 rb2_17_3_0 a4c2_17_3_1_0 a4c2_17_3_1_1 a4c2_17_3_1_2
 a4c2_17_3_1_3 rb2_17_4_0 a4c2_17_4_1_0 a4c2_17_4_1_1 a4c2_17_4_1_2
 a4c2_17_4_1_3 rb2_18_0_0 a4c2_18_0_1_0 a4c2_18_0_1_1 a4c2_18_0_1_2
 a4c2_18_0_1_3 rb2_18_1_0 a4c2_18_1_1_0 a4c2_18_1_1_1 a4c2_18_1_1_2
 a4c2_18_1_1_3 rb2_18_2_0 a4c2_18_2_1_0 a4c2_18_2_1_1 a4c2_18_2_1_2
 a4c2_18_2_1_3 rb2_18_3_0 a4c2_18_3_1_0 a4c2_18_3_1_1 a4c2_18_3_1_2
 a4c2_18_3_1_3 rb2_18_4_0 a4c2_18_4_1_0 a4c2_18_4_1_1 a4c2_18_4_1_2
 a4c2_18_4_1_3 a3c2_19_0_1_0 a3c2_19_0_1_1 a3c2_19_0_1_2 a3c2_19_0_2_0
 a3c2_19_0_2_1 a3c2_19_0_2_2 a3c2_19_1_1_0 a3c2_19_1_1_1 a3c2_19_1_1_2
 a3c2_19_1_2_0 a3c2_19_1_2_1 a3c2_19_1_2_2 a3c2_19_2_1_0 a3c2_19_2_1_1
 a3c2_19_2_1_2 a3c2_19_2_2_0 a3c2_19_2_2_1 a3c2_19_2_2_2 a3c2_19_3_1_0
 a3c2_19_3_1_1 a3c2_19_3_1_2 a3c2_19_3_2_0 a3c2_19_3_2_1 a3c2_19_3_2_2
 a3c2_19_4_1_0 a3c2_19_4_1_1 a3c2_19_4_1_2 a3c2_19_4_2_0 a3c2_19_4_2_1
 a3c2_19_4_2_2 a3c2_19_5_1_0 a3c2_19_5_1_1 a3c2_19_5_1_2 a3c2_19_5_2_0
 a3c2_19_5_2_1 a3c2_19_5_2_2 a4c2_20_0_1_0 a4c2_20_0_1_1 a4c2_20_0_1_2
 a4c2_20_0_1_3 a3c2_20_0_1_0 a3c2_20_0_1_1 a3c2_20_0_1_2 a4c2_20_1_1_0
 a4c2_20_1_1_1 a4c2_20_1_1_2 a4c2_20_1_1_3 a3c2_20_1_1_0 a3c2_20_1_1_1
 a3c2_20_1_1_2 a4c2_20_2_1_0 a4c2_20_2_1_1 a4c2_20_2_1_2 a4c2_20_2_1_3
 a3c2_20_2_1_0 a3c2_20_2_1_1 a3c2_20_2_1_2 a4c2_20_3_1_0 a4c2_20_3_1_1
 a4c2_20_3_1_2 a4c2_20_3_1_3 a3c2_20_3_1_0 a3c2_20_3_1_1 a3c2_20_3_1_2
 a4c2_20_4_1_0 a4c2_20_4_1_1 a4c2_20_4_1_2 a4c2_20_4_1_3 a3c2_20_4_1_0
 a3c2_20_4_1_1 a3c2_20_4_1_2 a4c2_20_5_1_0 a4c2_20_5_1_1 a4c2_20_5_1_2
 a4c2_20_5_1_3 a3c2_20_5_1_0 a3c2_20_5_1_1 a3c2_20_5_1_2 a4c2_20_6_1_0
 a4c2_20_6_1_1 a4c2_20_6_1_2 a4c2_20_6_1_3 a3c2_20_6_1_0 a3c2_20_6_1_1
 a3c2_20_6_1_2 a4c2_21_0_1_0 a4c2_21_0_1_1 a4c2_21_0_1_2 a4c2_21_0_1_3
 a4c2_21_0_2_0 a4c2_21_0_2_1 a4c2_21_0_2_2 a4c2_21_0_2_3 a4c2_21_1_1_0
 a4c2_21_1_1_1 a4c2_21_1_1_2 a4c2_21_1_1_3 a4c2_21_1_2_0 a4c2_21_1_2_1
 a4c2_21_1_2_2 a4c2_21_1_2_3 a4c2_21_2_1_0 a4c2_21_2_1_1 a4c2_21_2_1_2
 a4c2_21_2_1_3 a4c2_21_2_2_0 a4c2_21_2_2_1 a4c2_21_2_2_2 a4c2_21_2_2_3
 a4c2_21_3_1_0 a4c2_21_3_1_1 a4c2_21_3_1_2 a4c2_21_3_1_3 a4c2_21_3_2_0
 a4c2_21_3_2_1 a4c2_21_3_2_2 a4c2_21_3_2_3 a4c2_21_4_1_0 a4c2_21_4_1_1
 a4c2_21_4_1_2 a4c2_21_4_1_3 a4c2_21_4_2_0 a4c2_21_4_2_1 a4c2_21_4_2_2
 a4c2_21_4_2_3 a4c2_21_5_1_0 a4c2_21_5_1_1 a4c2_21_5_1_2 a4c2_21_5_1_3
 a4c2_21_5_2_0 a4c2_21_5_2_1 a4c2_21_5_2_2 a4c2_21_5_2_3 a4c2_21_6_1_0
 a4c2_21_6_1_1 a4c2_21_6_1_2 a4c2_21_6_1_3 a4c2_21_6_2_0 a4c2_21_6_2_1
 a4c2_21_6_2_2 a4c2_21_6_2_3 a4c2_21_7_1_0 a4c2_21_7_1_1 a4c2_21_7_1_2
 a4c2_21_7_1_3 a4c2_21_7_2_0 a4c2_21_7_2_1 a4c2_21_7_2_2 a4c2_21_7_2_3
 rb2_22_0_0 rb2_22_0_1 rb2_22_0_2 rb2_22_0_3 rb2_22_1_0 rb2_22_1_1
 rb2_22_1_2 rb2_22_1_3 rb2_22_2_0 rb2_22_2_1 rb2_22_2_2 rb2_22_2_3
 rb2_22_3_0 rb2_22_3_1 rb2_22_3_2 rb2_22_3_3 rb2_23_0_0 rb2_23_0_1
 a3c2_23_0_1_0 a3c2_23_0_1_1 a3c2_23_0_1_2 rb2_23_1_0 rb2_23_1_1
 a3c2_23_1_1_0 a3c2_23_1_1_1 a3c2_23_1_1_2 rb2_23_2_0 rb2_23_2_1
 a3c2_23_2_1_0 a3c2_23_2_1_1 a3c2_23_2_1_2 rb2_23_3_0 rb2_23_3_1
 a3c2_23_3_1_0 a3c2_23_3_1_1 a3c2_23_3_1_2 rb2_23_4_0 rb2_23_4_1
 a3c2_23_4_1_0 a3c2_23_4_1_1 a3c2_23_4_1_2 a4c2_24_0_1_0 a4c2_24_0_1_1
 a4c2_24_0_1_2 a4c2_24_0_1_3 a4c2_24_0_2_0 a4c2_24_0_2_1 a4c2_24_0_2_2
 a4c2_24_0_2_3 a4c2_24_1_1_0 a4c2_24_1_1_1 a4c2_24_1_1_2 a4c2_24_1_1_3
 a4c2_24_1_2_0 a4c2_24_1_2_1 a4c2_24_1_2_2 a4c2_24_1_2_3 a4c2_24_2_1_0
 a4c2_24_2_1_1 a4c2_24_2_1_2 a4c2_24_2_1_3 a4c2_24_2_2_0 a4c2_24_2_2_1
 a4c2_24_2_2_2 a4c2_24_2_2_3 a4c2_24_3_1_0 a4c2_24_3_1_1 a4c2_24_3_1_2
 a4c2_24_3_1_3 a4c2_24_3_2_0 a4c2_24_3_2_1 a4c2_24_3_2_2 a4c2_24_3_2_3
 a4c2_24_4_1_0 a4c2_24_4_1_1 a4c2_24_4_1_2 a4c2_24_4_1_3 a4c2_24_4_2_0
 a4c2_24_4_2_1 a4c2_24_4_2_2 a4c2_24_4_2_3 a4c2_24_5_1_0 a4c2_24_5_1_1
 a4c2_24_5_1_2 a4c2_24_5_1_3 a4c2_24_5_2_0 a4c2_24_5_2_1 a4c2_24_5_2_2
 a4c2_24_5_2_3 a4c2_24_6_1_0 a4c2_24_6_1_1 a4c2_24_6_1_2 a4c2_24_6_1_3
 a4c2_24_6_2_0 a4c2_24_6_2_1 a4c2_24_6_2_2 a4c2_24_6_2_3 a4c2_24_7_1_0
 a4c2_24_7_1_1 a4c2_24_7_1_2 a4c2_24_7_1_3 a4c2_24_7_2_0 a4c2_24_7_2_1
 a4c2_24_7_2_2 a4c2_24_7_2_3 a4c2_25_0_1_0 a4c2_25_0_1_1 a4c2_25_0_1_2
 a4c2_25_0_1_3 a4c2_25_0_2_0 a4c2_25_0_2_1 a4c2_25_0_2_2 a4c2_25_0_2_3
 a4c2_25_1_1_0 a4c2_25_1_1_1 a4c2_25_1_1_2 a4c2_25_1_1_3 a4c2_25_1_2_0
 a4c2_25_1_2_1 a4c2_25_1_2_2 a4c2_25_1_2_3 a4c2_25_2_1_0 a4c2_25_2_1_1
 a4c2_25_2_1_2 a4c2_25_2_1_3 a4c2_25_2_2_0 a4c2_25_2_2_1 a4c2_25_2_2_2
 a4c2_25_2_2_3 a4c2_25_3_1_0 a4c2_25_3_1_1 a4c2_25_3_1_2 a4c2_25_3_1_3
 a4c2_25_3_2_0 a4c2_25_3_2_1 a4c2_25_3_2_2 a4c2_25_3_2_3 a4c2_25_4_1_0
 a4c2_25_4_1_1 a4c2_25_4_1_2 a4c2_25_4_1_3 a4c2_25_4_2_0 a4c2_25_4_2_1
 a4c2_25_4_2_2 a4c2_25_4_2_3 a4c2_25_5_1_0 a4c2_25_5_1_1 a4c2_25_5_1_2
 a4c2_25_5_1_3 a4c2_25_5_2_0 a4c2_25_5_2_1 a4c2_25_5_2_2 a4c2_25_5_2_3
 a4c2_25_6_1_0 a4c2_25_6_1_1 a4c2_25_6_1_2 a4c2_25_6_1_3 a4c2_25_6_2_0
 a4c2_25_6_2_1 a4c2_25_6_2_2 a4c2_25_6_2_3 a4c2_25_7_1_0 a4c2_25_7_1_1
 a4c2_25_7_1_2 a4c2_25_7_1_3 a4c2_25_7_2_0 a4c2_25_7_2_1 a4c2_25_7_2_2
 a4c2_25_7_2_3 a3c2_26_0_1_0 a3c2_26_0_1_1 a3c2_26_0_1_2 a3c2_26_1_1_0
 a3c2_26_1_1_1 a3c2_26_1_1_2 a3c2_26_2_1_0 a3c2_26_2_1_1 a3c2_26_2_1_2
 rb2_27_0_0 a4c2_27_0_1_0 a4c2_27_0_1_1 a4c2_27_0_1_2 a4c2_27_0_1_3
 rb2_27_1_0 a4c2_27_1_1_0 a4c2_27_1_1_1 a4c2_27_1_1_2 a4c2_27_1_1_3
 rb2_27_2_0 a4c2_27_2_1_0 a4c2_27_2_1_1 a4c2_27_2_1_2 a4c2_27_2_1_3
 rb2_27_3_0 a4c2_27_3_1_0 a4c2_27_3_1_1 a4c2_27_3_1_2 a4c2_27_3_1_3
 rb2_27_4_0 a4c2_27_4_1_0 a4c2_27_4_1_1 a4c2_27_4_1_2 a4c2_27_4_1_3
 rb2_28_0_0 a3c2_28_0_1_0 a3c2_28_0_1_1 a3c2_28_0_1_2 rb2_28_1_0
 a3c2_28_1_1_0 a3c2_28_1_1_1 a3c2_28_1_1_2 rb2_28_2_0 a3c2_28_2_1_0
 a3c2_28_2_1_1 a3c2_28_2_1_2 rb2_28_3_0 a3c2_28_3_1_0 a3c2_28_3_1_1
 a3c2_28_3_1_2 rb2_29_0_0 rb2_29_0_1 rb2_29_0_2 f2_29_0_1_0 f2_29_0_1_1
 f2_29_0_1_2 rb2_29_1_0 rb2_29_1_1 rb2_29_1_2 f2_29_1_1_0 f2_29_1_1_1
 f2_29_1_1_2 rb2_29_2_0 rb2_29_2_1 rb2_29_2_2 f2_29_2_1_0 f2_29_2_1_1
 f2_29_2_1_2 rb2_29_3_0 rb2_29_3_1 rb2_29_3_2 f2_29_3_1_0 f2_29_3_1_1
 f2_29_3_1_2 rb2_29_4_0 rb2_29_4_1 rb2_29_4_2 f2_29_4_1_0 f2_29_4_1_1
 f2_29_4_1_2 rb2_29_5_0 rb2_29_5_1 rb2_29_5_2 f2_29_5_1_0 f2_29_5_1_1
 f2_29_5_1_2 rb2_30_0_0 rb2_30_0_1 rb2_30_0_2 rb2_30_1_0 rb2_30_1_1
 rb2_30_1_2 rb2_30_2_0 rb2_30_2_1 rb2_30_2_2 a3c2_31_0_1_0 a3c2_31_0_1_1
 a3c2_31_0_1_2 a3c2_31_1_1_0 a3c2_31_1_1_1 a3c2_31_1_1_2 a3c2_31_2_1_0
 a3c2_31_2_1_1 a3c2_31_2_1_2 rb2_32_0_0 rb2_32_0_1 rb2_32_0_2 rb2_32_1_0
 rb2_32_1_1 rb2_32_1_2 rb2_32_2_0 rb2_32_2_1 rb2_32_2_2 rb2_33_0_0
 rb2_33_0_1 rb2_33_1_0 rb2_33_1_1 rb2_34_0_0 rb3_4_0_0 rb3_4_0_1 rb3_4_1_0
 rb3_4_1_1 rb3_5_0_0 f3_6_0_1_0 f3_6_0_1_1 f3_6_0_1_2 f3_6_1_1_0 f3_6_1_1_1
 f3_6_1_1_2 f3_6_2_1_0 f3_6_2_1_1 f3_6_2_1_2 f3_7_0_1_0 f3_7_0_1_1
 f3_7_0_1_2 f3_7_1_1_0 f3_7_1_1_1 f3_7_1_1_2 f3_7_2_1_0 f3_7_2_1_1
 f3_7_2_1_2 f3_8_0_1_0 f3_8_0_1_1 f3_8_0_1_2 f3_8_1_1_0 f3_8_1_1_1
 f3_8_1_1_2 f3_8_2_1_0 f3_8_2_1_1 f3_8_2_1_2 f3_9_0_1_0 f3_9_0_1_1
 f3_9_0_1_2 f3_9_1_1_0 f3_9_1_1_1 f3_9_1_1_2 f3_9_2_1_0 f3_9_2_1_1
 f3_9_2_1_2 f3_10_0_1_0 f3_10_0_1_1 f3_10_0_1_2 f3_10_1_1_0 f3_10_1_1_1
 f3_10_1_1_2 f3_10_2_1_0 f3_10_2_1_1 f3_10_2_1_2 f3_11_0_1_0 f3_11_0_1_1
 f3_11_0_1_2 f3_11_1_1_0 f3_11_1_1_1 f3_11_1_1_2 f3_11_2_1_0 f3_11_2_1_1
 f3_11_2_1_2 f3_12_0_1_0 f3_12_0_1_1 f3_12_0_1_2 f3_12_1_1_0 f3_12_1_1_1
 f3_12_1_1_2 f3_12_2_1_0 f3_12_2_1_1 f3_12_2_1_2 f3_13_0_1_0 f3_13_0_1_1
 f3_13_0_1_2 f3_13_1_1_0 f3_13_1_1_1 f3_13_1_1_2 f3_13_2_1_0 f3_13_2_1_1
 f3_13_2_1_2 rb3_14_0_0 f3_14_0_1_0 f3_14_0_1_1 f3_14_0_1_2 rb3_14_1_0
 f3_14_1_1_0 f3_14_1_1_1 f3_14_1_1_2 rb3_14_2_0 f3_14_2_1_0 f3_14_2_1_1
 f3_14_2_1_2 rb3_14_3_0 f3_14_3_1_0 f3_14_3_1_1 f3_14_3_1_2 rb3_15_0_0
 rb3_15_0_1 rb3_15_1_0 rb3_15_1_1 a4c3_16_0_1_0 a4c3_16_0_1_1 a4c3_16_0_1_2
 a4c3_16_0_1_3 a4c3_16_1_1_0 a4c3_16_1_1_1 a4c3_16_1_1_2 a4c3_16_1_1_3
 a4c3_16_2_1_0 a4c3_16_2_1_1 a4c3_16_2_1_2 a4c3_16_2_1_3 a4c3_16_3_1_0
 a4c3_16_3_1_1 a4c3_16_3_1_2 a4c3_16_3_1_3 a3c3_17_0_1_0 a3c3_17_0_1_1
 a3c3_17_0_1_2 a3c3_17_1_1_0 a3c3_17_1_1_1 a3c3_17_1_1_2 a3c3_17_2_1_0
 a3c3_17_2_1_1 a3c3_17_2_1_2 a3c3_18_0_1_0 a3c3_18_0_1_1 a3c3_18_0_1_2
 a3c3_18_1_1_0 a3c3_18_1_1_1 a3c3_18_1_1_2 a3c3_18_2_1_0 a3c3_18_2_1_1
 a3c3_18_2_1_2 a4c3_19_0_1_0 a4c3_19_0_1_1 a4c3_19_0_1_2 a4c3_19_0_1_3
 a4c3_19_1_1_0 a4c3_19_1_1_1 a4c3_19_1_1_2 a4c3_19_1_1_3 a4c3_19_2_1_0
 a4c3_19_2_1_1 a4c3_19_2_1_2 a4c3_19_2_1_3 a4c3_19_3_1_0 a4c3_19_3_1_1
 a4c3_19_3_1_2 a4c3_19_3_1_3 a4c3_20_0_1_0 a4c3_20_0_1_1 a4c3_20_0_1_2
 a4c3_20_0_1_3 a4c3_20_1_1_0 a4c3_20_1_1_1 a4c3_20_1_1_2 a4c3_20_1_1_3
 a4c3_20_2_1_0 a4c3_20_2_1_1 a4c3_20_2_1_2 a4c3_20_2_1_3 a4c3_20_3_1_0
 a4c3_20_3_1_1 a4c3_20_3_1_2 a4c3_20_3_1_3 a4c3_21_0_1_0 a4c3_21_0_1_1
 a4c3_21_0_1_2 a4c3_21_0_1_3 a4c3_21_1_1_0 a4c3_21_1_1_1 a4c3_21_1_1_2
 a4c3_21_1_1_3 a4c3_21_2_1_0 a4c3_21_2_1_1 a4c3_21_2_1_2 a4c3_21_2_1_3
 a4c3_21_3_1_0 a4c3_21_3_1_1 a4c3_21_3_1_2 a4c3_21_3_1_3 a4c3_22_0_1_0
 a4c3_22_0_1_1 a4c3_22_0_1_2 a4c3_22_0_1_3 a4c3_22_1_1_0 a4c3_22_1_1_1
 a4c3_22_1_1_2 a4c3_22_1_1_3 a4c3_22_2_1_0 a4c3_22_2_1_1 a4c3_22_2_1_2
 a4c3_22_2_1_3 a4c3_22_3_1_0 a4c3_22_3_1_1 a4c3_22_3_1_2 a4c3_22_3_1_3
 a4c3_23_0_1_0 a4c3_23_0_1_1 a4c3_23_0_1_2 a4c3_23_0_1_3 a4c3_23_1_1_0
 a4c3_23_1_1_1 a4c3_23_1_1_2 a4c3_23_1_1_3 a4c3_23_2_1_0 a4c3_23_2_1_1
 a4c3_23_2_1_2 a4c3_23_2_1_3 a4c3_23_3_1_0 a4c3_23_3_1_1 a4c3_23_3_1_2
 a4c3_23_3_1_3 a4c3_24_0_1_0 a4c3_24_0_1_1 a4c3_24_0_1_2 a4c3_24_0_1_3
 a4c3_24_1_1_0 a4c3_24_1_1_1 a4c3_24_1_1_2 a4c3_24_1_1_3 a4c3_24_2_1_0
 a4c3_24_2_1_1 a4c3_24_2_1_2 a4c3_24_2_1_3 a4c3_24_3_1_0 a4c3_24_3_1_1
 a4c3_24_3_1_2 a4c3_24_3_1_3 a4c3_25_0_1_0 a4c3_25_0_1_1 a4c3_25_0_1_2
 a4c3_25_0_1_3 a4c3_25_1_1_0 a4c3_25_1_1_1 a4c3_25_1_1_2 a4c3_25_1_1_3
 a4c3_25_2_1_0 a4c3_25_2_1_1 a4c3_25_2_1_2 a4c3_25_2_1_3 a4c3_25_3_1_0
 a4c3_25_3_1_1 a4c3_25_3_1_2 a4c3_25_3_1_3 rb3_26_0_0 rb3_26_0_1 rb3_26_1_0
 rb3_26_1_1 a3c3_27_0_1_0 a3c3_27_0_1_1 a3c3_27_0_1_2 a3c3_27_1_1_0
 a3c3_27_1_1_1 a3c3_27_1_1_2 a3c3_27_2_1_0 a3c3_27_2_1_1 a3c3_27_2_1_2
 a4c3_28_0_1_0 a4c3_28_0_1_1 a4c3_28_0_1_2 a4c3_28_0_1_3 a4c3_28_1_1_0
 a4c3_28_1_1_1 a4c3_28_1_1_2 a4c3_28_1_1_3 a4c3_28_2_1_0 a4c3_28_2_1_1
 a4c3_28_2_1_2 a4c3_28_2_1_3 a4c3_28_3_1_0 a4c3_28_3_1_1 a4c3_28_3_1_2
 a4c3_28_3_1_3 a4c3_29_0_1_0 a4c3_29_0_1_1 a4c3_29_0_1_2 a4c3_29_0_1_3
 a4c3_29_1_1_0 a4c3_29_1_1_1 a4c3_29_1_1_2 a4c3_29_1_1_3 a4c3_29_2_1_0
 a4c3_29_2_1_1 a4c3_29_2_1_2 a4c3_29_2_1_3 a4c3_29_3_1_0 a4c3_29_3_1_1
 a4c3_29_3_1_2 a4c3_29_3_1_3 a3c3_30_0_1_0 a3c3_30_0_1_1 a3c3_30_0_1_2
 a3c3_30_1_1_0 a3c3_30_1_1_1 a3c3_30_1_1_2 a3c3_30_2_1_0 a3c3_30_2_1_1
 a3c3_30_2_1_2 rb3_31_0_0 rb3_31_0_1 rb3_31_1_0 rb3_31_1_1 a3c3_32_0_1_0
 a3c3_32_0_1_1 a3c3_32_0_1_2 a3c3_32_1_1_0 a3c3_32_1_1_1 a3c3_32_1_1_2
 a3c3_32_2_1_0 a3c3_32_2_1_1 a3c3_32_2_1_2 rb3_33_0_0 rb3_33_0_1 rb3_33_1_0
 rb3_33_1_1 rb3_34_0_0 rb4_4_0_0 rb4_4_0_1 rb4_4_1_0 rb4_4_1_1 rb4_5_0_0
 rb4_5_0_1 rb4_5_1_0 rb4_5_1_1 rb4_6_0_0 rb4_6_0_1 rb4_6_1_0 rb4_6_1_1
 rb4_7_0_0 rb4_7_0_1 rb4_7_1_0 rb4_7_1_1 rb4_8_0_0 rb4_8_0_1 rb4_8_1_0
 rb4_8_1_1 rb4_9_0_0 rb4_9_0_1 rb4_9_1_0 rb4_9_1_1 rb4_10_0_0 rb4_10_0_1
 rb4_10_1_0 rb4_10_1_1 rb4_11_0_0 rb4_11_0_1 rb4_11_1_0 rb4_11_1_1
 rb4_12_0_0 rb4_12_0_1 rb4_12_1_0 rb4_12_1_1 rb4_13_0_0 rb4_13_0_1
 rb4_13_1_0 rb4_13_1_1 rb4_14_0_0 rb4_14_0_1 rb4_14_1_0 rb4_14_1_1
 rb4_15_0_0 rb4_15_0_1 rb4_15_1_0 rb4_15_1_1 rb4_16_0_0 rb4_16_0_1
 rb4_16_1_0 rb4_16_1_1 rb4_17_0_0 rb4_17_0_1 rb4_17_1_0 rb4_17_1_1
 rb4_18_0_0 rb4_18_0_1 rb4_18_1_0 rb4_18_1_1 rb4_19_0_0 rb4_19_0_1
 rb4_19_1_0 rb4_19_1_1 rb4_20_0_0 rb4_20_0_1 rb4_20_1_0 rb4_20_1_1
 rb4_21_0_0 rb4_21_0_1 rb4_21_1_0 rb4_21_1_1 rb4_22_0_0 rb4_22_0_1
 rb4_22_1_0 rb4_22_1_1 rb4_23_0_0 rb4_23_0_1 rb4_23_1_0 rb4_23_1_1
 rb4_24_0_0 rb4_24_0_1 rb4_24_1_0 rb4_24_1_1 rb4_25_0_0 rb4_25_0_1
 rb4_25_1_0 rb4_25_1_1 rb4_26_0_0 rb4_26_0_1 rb4_26_1_0 rb4_26_1_1
 rb4_27_0_0 rb4_27_0_1 rb4_27_1_0 rb4_27_1_1 rb4_28_0_0 rb4_28_0_1
 rb4_28_1_0 rb4_28_1_1 rb4_29_0_0 rb4_29_0_1 rb4_29_1_0 rb4_29_1_1
 rb4_30_0_0 rb4_30_0_1 rb4_30_1_0 rb4_30_1_1 rb4_31_0_0 rb4_31_0_1
 rb4_31_1_0 rb4_31_1_1 rb4_32_0_0 rb4_32_0_1 rb4_32_1_0 rb4_32_1_1
 rb4_33_0_0 rb4_33_0_1 rb4_33_1_0 rb4_33_1_1 rb4_34_0_0
End
