\ LP format - for model browsing. Use MPS format to capture full model detail.
\ Signature: 0xbf75f6061b07290b
Minimize
  2.66 hs + 5.05 fs + 2.66 ac32s + 4.78 ac42s
Subject To
 R0: V0_0 = 0
 R1: V0_1 = 0
 R2: V0_2 = 0
 R3: V0_3 = 0
 R4: V0_4 = 1
 R5: V0_5 = 2
 R6: V0_6 = 3
 R7: V0_7 = 4
 R8: V0_8 = 5
 R9: V0_9 = 6
 R10: V0_10 = 7
 R11: V0_11 = 8
 R12: V0_12 = 9
 R13: V0_13 = 10
 R14: V0_14 = 11
 R15: V0_15 = 12
 R16: V0_16 = 13
 R17: V0_17 = 14
 R18: V0_18 = 15
 R19: V0_19 = 16
 R20: V0_20 = 15
 R21: V0_21 = 14
 R22: V0_22 = 13
 R23: V0_23 = 12
 R24: V0_24 = 11
 R25: V0_25 = 10
 R26: V0_26 = 9
 R27: V0_27 = 8
 R28: V0_28 = 7
 R29: V0_29 = 6
 R30: V0_30 = 5
 R31: V0_31 = 4
 R32: V0_32 = 3
 R33: V0_33 = 2
 R34: V0_34 = 1
 R35: - V0_0 + 3 f1_0 + 2 h1_0 + 3 32ac1_0 + 4 42ac1_0 <= 0
 R36: - V0_0 + 2 f1_0 + h1_0 + 32ac1_0 + 2 42ac1_0 + V1_0 - f1_1 - h1_1
   = 0
 R37: - V0_1 + 3 f1_1 + 2 h1_1 + 3 32ac1_1 + 4 42ac1_1 <= 0
 R38: - V0_1 + 2 f1_1 + h1_1 + 32ac1_1 + 2 42ac1_1 + V1_1 - f1_2 - h1_2
   = 0
 R39: - V0_2 + 3 f1_2 + 2 h1_2 + 3 32ac1_2 + 4 42ac1_2 <= 0
 R40: - V0_2 + 2 f1_2 + h1_2 + 32ac1_2 + 2 42ac1_2 + V1_2 - f1_3 - h1_3
   = 0
 R41: - V0_3 + 3 f1_3 + 2 h1_3 + 3 32ac1_3 + 4 42ac1_3 <= 0
 R42: - V0_3 + 2 f1_3 + h1_3 + 32ac1_3 + 2 42ac1_3 + V1_3 - f1_4 - h1_4
   = 0
 R43: - V0_4 + 3 f1_4 + 2 h1_4 + 3 32ac1_4 + 4 42ac1_4 <= 0
 R44: - V0_4 + 2 f1_4 + h1_4 + 32ac1_4 + 2 42ac1_4 + V1_4 - f1_5 - h1_5
   = 0
 R45: - V0_5 + 3 f1_5 + 2 h1_5 + 3 32ac1_5 + 4 42ac1_5 <= 0
 R46: - V0_5 + 2 f1_5 + h1_5 + 32ac1_5 + 2 42ac1_5 + V1_5 - f1_6 - h1_6
   = 0
 R47: - V0_6 + 3 f1_6 + 2 h1_6 + 3 32ac1_6 + 4 42ac1_6 <= 0
 R48: - V0_6 + 2 f1_6 + h1_6 + 32ac1_6 + 2 42ac1_6 + V1_6 - f1_7 - h1_7
   = 0
 R49: - V0_7 + 3 f1_7 + 2 h1_7 + 3 32ac1_7 + 4 42ac1_7 <= 0
 R50: - V0_7 + 2 f1_7 + h1_7 + 32ac1_7 + 2 42ac1_7 + V1_7 - f1_8 - h1_8
   = 0
 R51: - V0_8 + 3 f1_8 + 2 h1_8 + 3 32ac1_8 + 4 42ac1_8 <= 0
 R52: - V0_8 + 2 f1_8 + h1_8 + 32ac1_8 + 2 42ac1_8 + V1_8 - f1_9 - h1_9
   = 0
 R53: - V0_9 + 3 f1_9 + 2 h1_9 + 3 32ac1_9 + 4 42ac1_9 <= 0
 R54: - V0_9 + 2 f1_9 + h1_9 + 32ac1_9 + 2 42ac1_9 + V1_9 - f1_10 - h1_10
   = 0
 R55: - V0_10 + 3 f1_10 + 2 h1_10 + 3 32ac1_10 + 4 42ac1_10 <= 0
 R56: - V0_10 + 2 f1_10 + h1_10 + 32ac1_10 + 2 42ac1_10 + V1_10 - f1_11
   - h1_11 = 0
 R57: - V0_11 + 3 f1_11 + 2 h1_11 + 3 32ac1_11 + 4 42ac1_11 <= 0
 R58: - V0_11 + 2 f1_11 + h1_11 + 32ac1_11 + 2 42ac1_11 + V1_11 - f1_12
   - h1_12 = 0
 R59: - V0_12 + 3 f1_12 + 2 h1_12 + 3 32ac1_12 + 4 42ac1_12 <= 0
 R60: - V0_12 + 2 f1_12 + h1_12 + 32ac1_12 + 2 42ac1_12 + V1_12 - f1_13
   - h1_13 = 0
 R61: - V0_13 + 3 f1_13 + 2 h1_13 + 3 32ac1_13 + 4 42ac1_13 <= 0
 R62: - V0_13 + 2 f1_13 + h1_13 + 32ac1_13 + 2 42ac1_13 + V1_13 - f1_14
   - h1_14 = 0
 R63: - V0_14 + 3 f1_14 + 2 h1_14 + 3 32ac1_14 + 4 42ac1_14 <= 0
 R64: - V0_14 + 2 f1_14 + h1_14 + 32ac1_14 + 2 42ac1_14 + V1_14 - f1_15
   - h1_15 = 0
 R65: - V0_15 + 3 f1_15 + 2 h1_15 + 3 32ac1_15 + 4 42ac1_15 <= 0
 R66: - V0_15 + 2 f1_15 + h1_15 + 32ac1_15 + 2 42ac1_15 + V1_15 - f1_16
   - h1_16 = 0
 R67: - V0_16 + 3 f1_16 + 2 h1_16 + 3 32ac1_16 + 4 42ac1_16 <= 0
 R68: - V0_16 + 2 f1_16 + h1_16 + 32ac1_16 + 2 42ac1_16 + V1_16 - f1_17
   - h1_17 = 0
 R69: - V0_17 + 3 f1_17 + 2 h1_17 + 3 32ac1_17 + 4 42ac1_17 <= 0
 R70: - V0_17 + 2 f1_17 + h1_17 + 32ac1_17 + 2 42ac1_17 + V1_17 - f1_18
   - h1_18 = 0
 R71: - V0_18 + 3 f1_18 + 2 h1_18 + 3 32ac1_18 + 4 42ac1_18 <= 0
 R72: - V0_18 + 2 f1_18 + h1_18 + 32ac1_18 + 2 42ac1_18 + V1_18 - f1_19
   - h1_19 = 0
 R73: - V0_19 + 3 f1_19 + 2 h1_19 + 3 32ac1_19 + 4 42ac1_19 <= 0
 R74: - V0_19 + 2 f1_19 + h1_19 + 32ac1_19 + 2 42ac1_19 + V1_19 - f1_20
   - h1_20 = 0
 R75: - V0_20 + 3 f1_20 + 2 h1_20 + 3 32ac1_20 + 4 42ac1_20 <= 0
 R76: - V0_20 + 2 f1_20 + h1_20 + 32ac1_20 + 2 42ac1_20 + V1_20 - f1_21
   - h1_21 = 0
 R77: - V0_21 + 3 f1_21 + 2 h1_21 + 3 32ac1_21 + 4 42ac1_21 <= 0
 R78: - V0_21 + 2 f1_21 + h1_21 + 32ac1_21 + 2 42ac1_21 + V1_21 - f1_22
   - h1_22 = 0
 R79: - V0_22 + 3 f1_22 + 2 h1_22 + 3 32ac1_22 + 4 42ac1_22 <= 0
 R80: - V0_22 + 2 f1_22 + h1_22 + 32ac1_22 + 2 42ac1_22 + V1_22 - f1_23
   - h1_23 = 0
 R81: - V0_23 + 3 f1_23 + 2 h1_23 + 3 32ac1_23 + 4 42ac1_23 <= 0
 R82: - V0_23 + 2 f1_23 + h1_23 + 32ac1_23 + 2 42ac1_23 + V1_23 - f1_24
   - h1_24 = 0
 R83: - V0_24 + 3 f1_24 + 2 h1_24 + 3 32ac1_24 + 4 42ac1_24 <= 0
 R84: - V0_24 + 2 f1_24 + h1_24 + 32ac1_24 + 2 42ac1_24 + V1_24 - f1_25
   - h1_25 = 0
 R85: - V0_25 + 3 f1_25 + 2 h1_25 + 3 32ac1_25 + 4 42ac1_25 <= 0
 R86: - V0_25 + 2 f1_25 + h1_25 + 32ac1_25 + 2 42ac1_25 + V1_25 - f1_26
   - h1_26 = 0
 R87: - V0_26 + 3 f1_26 + 2 h1_26 + 3 32ac1_26 + 4 42ac1_26 <= 0
 R88: - V0_26 + 2 f1_26 + h1_26 + 32ac1_26 + 2 42ac1_26 + V1_26 - f1_27
   - h1_27 = 0
 R89: - V0_27 + 3 f1_27 + 2 h1_27 + 3 32ac1_27 + 4 42ac1_27 <= 0
 R90: - V0_27 + 2 f1_27 + h1_27 + 32ac1_27 + 2 42ac1_27 + V1_27 - f1_28
   - h1_28 = 0
 R91: - V0_28 + 3 f1_28 + 2 h1_28 + 3 32ac1_28 + 4 42ac1_28 <= 0
 R92: - V0_28 + 2 f1_28 + h1_28 + 32ac1_28 + 2 42ac1_28 + V1_28 - f1_29
   - h1_29 = 0
 R93: - V0_29 + 3 f1_29 + 2 h1_29 + 3 32ac1_29 + 4 42ac1_29 <= 0
 R94: - V0_29 + 2 f1_29 + h1_29 + 32ac1_29 + 2 42ac1_29 + V1_29 - f1_30
   - h1_30 = 0
 R95: - V0_30 + 3 f1_30 + 2 h1_30 + 3 32ac1_30 + 4 42ac1_30 <= 0
 R96: - V0_30 + 2 f1_30 + h1_30 + 32ac1_30 + 2 42ac1_30 + V1_30 - f1_31
   - h1_31 = 0
 R97: - V0_31 + 3 f1_31 + 2 h1_31 + 3 32ac1_31 + 4 42ac1_31 <= 0
 R98: - V0_31 + 2 f1_31 + h1_31 + 32ac1_31 + 2 42ac1_31 + V1_31 - f1_32
   - h1_32 = 0
 R99: - V0_32 + 3 f1_32 + 2 h1_32 + 3 32ac1_32 + 4 42ac1_32 <= 0
 R100: - V0_32 + 2 f1_32 + h1_32 + 32ac1_32 + 2 42ac1_32 + V1_32 - f1_33
   - h1_33 = 0
 R101: - V0_33 + 3 f1_33 + 2 h1_33 + 3 32ac1_33 + 4 42ac1_33 <= 0
 R102: - V0_33 + 2 f1_33 + h1_33 + 32ac1_33 + 2 42ac1_33 + V1_33 - f1_34
   - h1_34 = 0
 R103: V1_34 = 1
 R104: f1_34 = 0
 R105: h1_34 = 0
 R106: 32ac1_34 = 0
 R107: 42ac1_34 = 0
 R108: - V1_0 + 3 f2_0 + 2 h2_0 + 3 32ac2_0 + 4 42ac2_0 <= 0
 R109: - V1_0 + 2 f2_0 + h2_0 + 32ac2_0 + 2 42ac2_0 + V2_0 - f2_1 - h2_1
   = 0
 R110: - V1_1 + 3 f2_1 + 2 h2_1 + 3 32ac2_1 + 4 42ac2_1 <= 0
 R111: - V1_1 + 2 f2_1 + h2_1 + 32ac2_1 + 2 42ac2_1 + V2_1 - f2_2 - h2_2
   = 0
 R112: - V1_2 + 3 f2_2 + 2 h2_2 + 3 32ac2_2 + 4 42ac2_2 <= 0
 R113: - V1_2 + 2 f2_2 + h2_2 + 32ac2_2 + 2 42ac2_2 + V2_2 - f2_3 - h2_3
   = 0
 R114: - V1_3 + 3 f2_3 + 2 h2_3 + 3 32ac2_3 + 4 42ac2_3 <= 0
 R115: - V1_3 + 2 f2_3 + h2_3 + 32ac2_3 + 2 42ac2_3 + V2_3 - f2_4 - h2_4
   = 0
 R116: - V1_4 + 3 f2_4 + 2 h2_4 + 3 32ac2_4 + 4 42ac2_4 <= 0
 R117: - V1_4 + 2 f2_4 + h2_4 + 32ac2_4 + 2 42ac2_4 + V2_4 - f2_5 - h2_5
   = 0
 R118: - V1_5 + 3 f2_5 + 2 h2_5 + 3 32ac2_5 + 4 42ac2_5 <= 0
 R119: - V1_5 + 2 f2_5 + h2_5 + 32ac2_5 + 2 42ac2_5 + V2_5 - f2_6 - h2_6
   = 0
 R120: - V1_6 + 3 f2_6 + 2 h2_6 + 3 32ac2_6 + 4 42ac2_6 <= 0
 R121: - V1_6 + 2 f2_6 + h2_6 + 32ac2_6 + 2 42ac2_6 + V2_6 - f2_7 - h2_7
   = 0
 R122: - V1_7 + 3 f2_7 + 2 h2_7 + 3 32ac2_7 + 4 42ac2_7 <= 0
 R123: - V1_7 + 2 f2_7 + h2_7 + 32ac2_7 + 2 42ac2_7 + V2_7 - f2_8 - h2_8
   = 0
 R124: - V1_8 + 3 f2_8 + 2 h2_8 + 3 32ac2_8 + 4 42ac2_8 <= 0
 R125: - V1_8 + 2 f2_8 + h2_8 + 32ac2_8 + 2 42ac2_8 + V2_8 - f2_9 - h2_9
   = 0
 R126: - V1_9 + 3 f2_9 + 2 h2_9 + 3 32ac2_9 + 4 42ac2_9 <= 0
 R127: - V1_9 + 2 f2_9 + h2_9 + 32ac2_9 + 2 42ac2_9 + V2_9 - f2_10 - h2_10
   = 0
 R128: - V1_10 + 3 f2_10 + 2 h2_10 + 3 32ac2_10 + 4 42ac2_10 <= 0
 R129: - V1_10 + 2 f2_10 + h2_10 + 32ac2_10 + 2 42ac2_10 + V2_10 - f2_11
   - h2_11 = 0
 R130: - V1_11 + 3 f2_11 + 2 h2_11 + 3 32ac2_11 + 4 42ac2_11 <= 0
 R131: - V1_11 + 2 f2_11 + h2_11 + 32ac2_11 + 2 42ac2_11 + V2_11 - f2_12
   - h2_12 = 0
 R132: - V1_12 + 3 f2_12 + 2 h2_12 + 3 32ac2_12 + 4 42ac2_12 <= 0
 R133: - V1_12 + 2 f2_12 + h2_12 + 32ac2_12 + 2 42ac2_12 + V2_12 - f2_13
   - h2_13 = 0
 R134: - V1_13 + 3 f2_13 + 2 h2_13 + 3 32ac2_13 + 4 42ac2_13 <= 0
 R135: - V1_13 + 2 f2_13 + h2_13 + 32ac2_13 + 2 42ac2_13 + V2_13 - f2_14
   - h2_14 = 0
 R136: - V1_14 + 3 f2_14 + 2 h2_14 + 3 32ac2_14 + 4 42ac2_14 <= 0
 R137: - V1_14 + 2 f2_14 + h2_14 + 32ac2_14 + 2 42ac2_14 + V2_14 - f2_15
   - h2_15 = 0
 R138: - V1_15 + 3 f2_15 + 2 h2_15 + 3 32ac2_15 + 4 42ac2_15 <= 0
 R139: - V1_15 + 2 f2_15 + h2_15 + 32ac2_15 + 2 42ac2_15 + V2_15 - f2_16
   - h2_16 = 0
 R140: - V1_16 + 3 f2_16 + 2 h2_16 + 3 32ac2_16 + 4 42ac2_16 <= 0
 R141: - V1_16 + 2 f2_16 + h2_16 + 32ac2_16 + 2 42ac2_16 + V2_16 - f2_17
   - h2_17 = 0
 R142: - V1_17 + 3 f2_17 + 2 h2_17 + 3 32ac2_17 + 4 42ac2_17 <= 0
 R143: - V1_17 + 2 f2_17 + h2_17 + 32ac2_17 + 2 42ac2_17 + V2_17 - f2_18
   - h2_18 = 0
 R144: - V1_18 + 3 f2_18 + 2 h2_18 + 3 32ac2_18 + 4 42ac2_18 <= 0
 R145: - V1_18 + 2 f2_18 + h2_18 + 32ac2_18 + 2 42ac2_18 + V2_18 - f2_19
   - h2_19 = 0
 R146: - V1_19 + 3 f2_19 + 2 h2_19 + 3 32ac2_19 + 4 42ac2_19 <= 0
 R147: - V1_19 + 2 f2_19 + h2_19 + 32ac2_19 + 2 42ac2_19 + V2_19 - f2_20
   - h2_20 = 0
 R148: - V1_20 + 3 f2_20 + 2 h2_20 + 3 32ac2_20 + 4 42ac2_20 <= 0
 R149: - V1_20 + 2 f2_20 + h2_20 + 32ac2_20 + 2 42ac2_20 + V2_20 - f2_21
   - h2_21 = 0
 R150: - V1_21 + 3 f2_21 + 2 h2_21 + 3 32ac2_21 + 4 42ac2_21 <= 0
 R151: - V1_21 + 2 f2_21 + h2_21 + 32ac2_21 + 2 42ac2_21 + V2_21 - f2_22
   - h2_22 = 0
 R152: - V1_22 + 3 f2_22 + 2 h2_22 + 3 32ac2_22 + 4 42ac2_22 <= 0
 R153: - V1_22 + 2 f2_22 + h2_22 + 32ac2_22 + 2 42ac2_22 + V2_22 - f2_23
   - h2_23 = 0
 R154: - V1_23 + 3 f2_23 + 2 h2_23 + 3 32ac2_23 + 4 42ac2_23 <= 0
 R155: - V1_23 + 2 f2_23 + h2_23 + 32ac2_23 + 2 42ac2_23 + V2_23 - f2_24
   - h2_24 = 0
 R156: - V1_24 + 3 f2_24 + 2 h2_24 + 3 32ac2_24 + 4 42ac2_24 <= 0
 R157: - V1_24 + 2 f2_24 + h2_24 + 32ac2_24 + 2 42ac2_24 + V2_24 - f2_25
   - h2_25 = 0
 R158: - V1_25 + 3 f2_25 + 2 h2_25 + 3 32ac2_25 + 4 42ac2_25 <= 0
 R159: - V1_25 + 2 f2_25 + h2_25 + 32ac2_25 + 2 42ac2_25 + V2_25 - f2_26
   - h2_26 = 0
 R160: - V1_26 + 3 f2_26 + 2 h2_26 + 3 32ac2_26 + 4 42ac2_26 <= 0
 R161: - V1_26 + 2 f2_26 + h2_26 + 32ac2_26 + 2 42ac2_26 + V2_26 - f2_27
   - h2_27 = 0
 R162: - V1_27 + 3 f2_27 + 2 h2_27 + 3 32ac2_27 + 4 42ac2_27 <= 0
 R163: - V1_27 + 2 f2_27 + h2_27 + 32ac2_27 + 2 42ac2_27 + V2_27 - f2_28
   - h2_28 = 0
 R164: - V1_28 + 3 f2_28 + 2 h2_28 + 3 32ac2_28 + 4 42ac2_28 <= 0
 R165: - V1_28 + 2 f2_28 + h2_28 + 32ac2_28 + 2 42ac2_28 + V2_28 - f2_29
   - h2_29 = 0
 R166: - V1_29 + 3 f2_29 + 2 h2_29 + 3 32ac2_29 + 4 42ac2_29 <= 0
 R167: - V1_29 + 2 f2_29 + h2_29 + 32ac2_29 + 2 42ac2_29 + V2_29 - f2_30
   - h2_30 = 0
 R168: - V1_30 + 3 f2_30 + 2 h2_30 + 3 32ac2_30 + 4 42ac2_30 <= 0
 R169: - V1_30 + 2 f2_30 + h2_30 + 32ac2_30 + 2 42ac2_30 + V2_30 - f2_31
   - h2_31 = 0
 R170: - V1_31 + 3 f2_31 + 2 h2_31 + 3 32ac2_31 + 4 42ac2_31 <= 0
 R171: - V1_31 + 2 f2_31 + h2_31 + 32ac2_31 + 2 42ac2_31 + V2_31 - f2_32
   - h2_32 = 0
 R172: - V1_32 + 3 f2_32 + 2 h2_32 + 3 32ac2_32 + 4 42ac2_32 <= 0
 R173: - V1_32 + 2 f2_32 + h2_32 + 32ac2_32 + 2 42ac2_32 + V2_32 - f2_33
   - h2_33 = 0
 R174: - V1_33 + 3 f2_33 + 2 h2_33 + 3 32ac2_33 + 4 42ac2_33 <= 0
 R175: - V1_33 + 2 f2_33 + h2_33 + 32ac2_33 + 2 42ac2_33 + V2_33 - f2_34
   - h2_34 = 0
 R176: V2_34 = 1
 R177: f2_34 = 0
 R178: h2_34 = 0
 R179: 32ac2_34 = 0
 R180: 42ac2_34 = 0
 R181: - V2_0 + 3 f3_0 + 2 h3_0 + 3 32ac3_0 + 4 42ac3_0 <= 0
 R182: - V2_0 + 2 f3_0 + h3_0 + 32ac3_0 + 2 42ac3_0 + V3_0 - f3_1 - h3_1
   = 0
 R183: - V2_1 + 3 f3_1 + 2 h3_1 + 3 32ac3_1 + 4 42ac3_1 <= 0
 R184: - V2_1 + 2 f3_1 + h3_1 + 32ac3_1 + 2 42ac3_1 + V3_1 - f3_2 - h3_2
   = 0
 R185: - V2_2 + 3 f3_2 + 2 h3_2 + 3 32ac3_2 + 4 42ac3_2 <= 0
 R186: - V2_2 + 2 f3_2 + h3_2 + 32ac3_2 + 2 42ac3_2 + V3_2 - f3_3 - h3_3
   = 0
 R187: - V2_3 + 3 f3_3 + 2 h3_3 + 3 32ac3_3 + 4 42ac3_3 <= 0
 R188: - V2_3 + 2 f3_3 + h3_3 + 32ac3_3 + 2 42ac3_3 + V3_3 - f3_4 - h3_4
   = 0
 R189: - V2_4 + 3 f3_4 + 2 h3_4 + 3 32ac3_4 + 4 42ac3_4 <= 0
 R190: - V2_4 + 2 f3_4 + h3_4 + 32ac3_4 + 2 42ac3_4 + V3_4 - f3_5 - h3_5
   = 0
 R191: - V2_5 + 3 f3_5 + 2 h3_5 + 3 32ac3_5 + 4 42ac3_5 <= 0
 R192: - V2_5 + 2 f3_5 + h3_5 + 32ac3_5 + 2 42ac3_5 + V3_5 - f3_6 - h3_6
   = 0
 R193: - V2_6 + 3 f3_6 + 2 h3_6 + 3 32ac3_6 + 4 42ac3_6 <= 0
 R194: - V2_6 + 2 f3_6 + h3_6 + 32ac3_6 + 2 42ac3_6 + V3_6 - f3_7 - h3_7
   = 0
 R195: - V2_7 + 3 f3_7 + 2 h3_7 + 3 32ac3_7 + 4 42ac3_7 <= 0
 R196: - V2_7 + 2 f3_7 + h3_7 + 32ac3_7 + 2 42ac3_7 + V3_7 - f3_8 - h3_8
   = 0
 R197: - V2_8 + 3 f3_8 + 2 h3_8 + 3 32ac3_8 + 4 42ac3_8 <= 0
 R198: - V2_8 + 2 f3_8 + h3_8 + 32ac3_8 + 2 42ac3_8 + V3_8 - f3_9 - h3_9
   = 0
 R199: - V2_9 + 3 f3_9 + 2 h3_9 + 3 32ac3_9 + 4 42ac3_9 <= 0
 R200: - V2_9 + 2 f3_9 + h3_9 + 32ac3_9 + 2 42ac3_9 + V3_9 - f3_10 - h3_10
   = 0
 R201: - V2_10 + 3 f3_10 + 2 h3_10 + 3 32ac3_10 + 4 42ac3_10 <= 0
 R202: - V2_10 + 2 f3_10 + h3_10 + 32ac3_10 + 2 42ac3_10 + V3_10 - f3_11
   - h3_11 = 0
 R203: - V2_11 + 3 f3_11 + 2 h3_11 + 3 32ac3_11 + 4 42ac3_11 <= 0
 R204: - V2_11 + 2 f3_11 + h3_11 + 32ac3_11 + 2 42ac3_11 + V3_11 - f3_12
   - h3_12 = 0
 R205: - V2_12 + 3 f3_12 + 2 h3_12 + 3 32ac3_12 + 4 42ac3_12 <= 0
 R206: - V2_12 + 2 f3_12 + h3_12 + 32ac3_12 + 2 42ac3_12 + V3_12 - f3_13
   - h3_13 = 0
 R207: - V2_13 + 3 f3_13 + 2 h3_13 + 3 32ac3_13 + 4 42ac3_13 <= 0
 R208: - V2_13 + 2 f3_13 + h3_13 + 32ac3_13 + 2 42ac3_13 + V3_13 - f3_14
   - h3_14 = 0
 R209: - V2_14 + 3 f3_14 + 2 h3_14 + 3 32ac3_14 + 4 42ac3_14 <= 0
 R210: - V2_14 + 2 f3_14 + h3_14 + 32ac3_14 + 2 42ac3_14 + V3_14 - f3_15
   - h3_15 = 0
 R211: - V2_15 + 3 f3_15 + 2 h3_15 + 3 32ac3_15 + 4 42ac3_15 <= 0
 R212: - V2_15 + 2 f3_15 + h3_15 + 32ac3_15 + 2 42ac3_15 + V3_15 - f3_16
   - h3_16 = 0
 R213: - V2_16 + 3 f3_16 + 2 h3_16 + 3 32ac3_16 + 4 42ac3_16 <= 0
 R214: - V2_16 + 2 f3_16 + h3_16 + 32ac3_16 + 2 42ac3_16 + V3_16 - f3_17
   - h3_17 = 0
 R215: - V2_17 + 3 f3_17 + 2 h3_17 + 3 32ac3_17 + 4 42ac3_17 <= 0
 R216: - V2_17 + 2 f3_17 + h3_17 + 32ac3_17 + 2 42ac3_17 + V3_17 - f3_18
   - h3_18 = 0
 R217: - V2_18 + 3 f3_18 + 2 h3_18 + 3 32ac3_18 + 4 42ac3_18 <= 0
 R218: - V2_18 + 2 f3_18 + h3_18 + 32ac3_18 + 2 42ac3_18 + V3_18 - f3_19
   - h3_19 = 0
 R219: - V2_19 + 3 f3_19 + 2 h3_19 + 3 32ac3_19 + 4 42ac3_19 <= 0
 R220: - V2_19 + 2 f3_19 + h3_19 + 32ac3_19 + 2 42ac3_19 + V3_19 - f3_20
   - h3_20 = 0
 R221: - V2_20 + 3 f3_20 + 2 h3_20 + 3 32ac3_20 + 4 42ac3_20 <= 0
 R222: - V2_20 + 2 f3_20 + h3_20 + 32ac3_20 + 2 42ac3_20 + V3_20 - f3_21
   - h3_21 = 0
 R223: - V2_21 + 3 f3_21 + 2 h3_21 + 3 32ac3_21 + 4 42ac3_21 <= 0
 R224: - V2_21 + 2 f3_21 + h3_21 + 32ac3_21 + 2 42ac3_21 + V3_21 - f3_22
   - h3_22 = 0
 R225: - V2_22 + 3 f3_22 + 2 h3_22 + 3 32ac3_22 + 4 42ac3_22 <= 0
 R226: - V2_22 + 2 f3_22 + h3_22 + 32ac3_22 + 2 42ac3_22 + V3_22 - f3_23
   - h3_23 = 0
 R227: - V2_23 + 3 f3_23 + 2 h3_23 + 3 32ac3_23 + 4 42ac3_23 <= 0
 R228: - V2_23 + 2 f3_23 + h3_23 + 32ac3_23 + 2 42ac3_23 + V3_23 - f3_24
   - h3_24 = 0
 R229: - V2_24 + 3 f3_24 + 2 h3_24 + 3 32ac3_24 + 4 42ac3_24 <= 0
 R230: - V2_24 + 2 f3_24 + h3_24 + 32ac3_24 + 2 42ac3_24 + V3_24 - f3_25
   - h3_25 = 0
 R231: - V2_25 + 3 f3_25 + 2 h3_25 + 3 32ac3_25 + 4 42ac3_25 <= 0
 R232: - V2_25 + 2 f3_25 + h3_25 + 32ac3_25 + 2 42ac3_25 + V3_25 - f3_26
   - h3_26 = 0
 R233: - V2_26 + 3 f3_26 + 2 h3_26 + 3 32ac3_26 + 4 42ac3_26 <= 0
 R234: - V2_26 + 2 f3_26 + h3_26 + 32ac3_26 + 2 42ac3_26 + V3_26 - f3_27
   - h3_27 = 0
 R235: - V2_27 + 3 f3_27 + 2 h3_27 + 3 32ac3_27 + 4 42ac3_27 <= 0
 R236: - V2_27 + 2 f3_27 + h3_27 + 32ac3_27 + 2 42ac3_27 + V3_27 - f3_28
   - h3_28 = 0
 R237: - V2_28 + 3 f3_28 + 2 h3_28 + 3 32ac3_28 + 4 42ac3_28 <= 0
 R238: - V2_28 + 2 f3_28 + h3_28 + 32ac3_28 + 2 42ac3_28 + V3_28 - f3_29
   - h3_29 = 0
 R239: - V2_29 + 3 f3_29 + 2 h3_29 + 3 32ac3_29 + 4 42ac3_29 <= 0
 R240: - V2_29 + 2 f3_29 + h3_29 + 32ac3_29 + 2 42ac3_29 + V3_29 - f3_30
   - h3_30 = 0
 R241: - V2_30 + 3 f3_30 + 2 h3_30 + 3 32ac3_30 + 4 42ac3_30 <= 0
 R242: - V2_30 + 2 f3_30 + h3_30 + 32ac3_30 + 2 42ac3_30 + V3_30 - f3_31
   - h3_31 = 0
 R243: - V2_31 + 3 f3_31 + 2 h3_31 + 3 32ac3_31 + 4 42ac3_31 <= 0
 R244: - V2_31 + 2 f3_31 + h3_31 + 32ac3_31 + 2 42ac3_31 + V3_31 - f3_32
   - h3_32 = 0
 R245: - V2_32 + 3 f3_32 + 2 h3_32 + 3 32ac3_32 + 4 42ac3_32 <= 0
 R246: - V2_32 + 2 f3_32 + h3_32 + 32ac3_32 + 2 42ac3_32 + V3_32 - f3_33
   - h3_33 = 0
 R247: - V2_33 + 3 f3_33 + 2 h3_33 + 3 32ac3_33 + 4 42ac3_33 <= 0
 R248: - V2_33 + 2 f3_33 + h3_33 + 32ac3_33 + 2 42ac3_33 + V3_33 - f3_34
   - h3_34 = 0
 R249: V3_34 = 1
 R250: f3_34 = 0
 R251: h3_34 = 0
 R252: 32ac3_34 = 0
 R253: 42ac3_34 = 0
 R254: - V3_0 + 3 f4_0 + 2 h4_0 + 3 32ac4_0 + 4 42ac4_0 <= 0
 R255: - V3_0 + 2 f4_0 + h4_0 + 32ac4_0 + 2 42ac4_0 + V4_0 - f4_1 - h4_1
   = 0
 R256: - V3_1 + 3 f4_1 + 2 h4_1 + 3 32ac4_1 + 4 42ac4_1 <= 0
 R257: - V3_1 + 2 f4_1 + h4_1 + 32ac4_1 + 2 42ac4_1 + V4_1 - f4_2 - h4_2
   = 0
 R258: - V3_2 + 3 f4_2 + 2 h4_2 + 3 32ac4_2 + 4 42ac4_2 <= 0
 R259: - V3_2 + 2 f4_2 + h4_2 + 32ac4_2 + 2 42ac4_2 + V4_2 - f4_3 - h4_3
   = 0
 R260: - V3_3 + 3 f4_3 + 2 h4_3 + 3 32ac4_3 + 4 42ac4_3 <= 0
 R261: - V3_3 + 2 f4_3 + h4_3 + 32ac4_3 + 2 42ac4_3 + V4_3 - f4_4 - h4_4
   = 0
 R262: - V3_4 + 3 f4_4 + 2 h4_4 + 3 32ac4_4 + 4 42ac4_4 <= 0
 R263: - V3_4 + 2 f4_4 + h4_4 + 32ac4_4 + 2 42ac4_4 + V4_4 - f4_5 - h4_5
   = 0
 R264: - V3_5 + 3 f4_5 + 2 h4_5 + 3 32ac4_5 + 4 42ac4_5 <= 0
 R265: - V3_5 + 2 f4_5 + h4_5 + 32ac4_5 + 2 42ac4_5 + V4_5 - f4_6 - h4_6
   = 0
 R266: - V3_6 + 3 f4_6 + 2 h4_6 + 3 32ac4_6 + 4 42ac4_6 <= 0
 R267: - V3_6 + 2 f4_6 + h4_6 + 32ac4_6 + 2 42ac4_6 + V4_6 - f4_7 - h4_7
   = 0
 R268: - V3_7 + 3 f4_7 + 2 h4_7 + 3 32ac4_7 + 4 42ac4_7 <= 0
 R269: - V3_7 + 2 f4_7 + h4_7 + 32ac4_7 + 2 42ac4_7 + V4_7 - f4_8 - h4_8
   = 0
 R270: - V3_8 + 3 f4_8 + 2 h4_8 + 3 32ac4_8 + 4 42ac4_8 <= 0
 R271: - V3_8 + 2 f4_8 + h4_8 + 32ac4_8 + 2 42ac4_8 + V4_8 - f4_9 - h4_9
   = 0
 R272: - V3_9 + 3 f4_9 + 2 h4_9 + 3 32ac4_9 + 4 42ac4_9 <= 0
 R273: - V3_9 + 2 f4_9 + h4_9 + 32ac4_9 + 2 42ac4_9 + V4_9 - f4_10 - h4_10
   = 0
 R274: - V3_10 + 3 f4_10 + 2 h4_10 + 3 32ac4_10 + 4 42ac4_10 <= 0
 R275: - V3_10 + 2 f4_10 + h4_10 + 32ac4_10 + 2 42ac4_10 + V4_10 - f4_11
   - h4_11 = 0
 R276: - V3_11 + 3 f4_11 + 2 h4_11 + 3 32ac4_11 + 4 42ac4_11 <= 0
 R277: - V3_11 + 2 f4_11 + h4_11 + 32ac4_11 + 2 42ac4_11 + V4_11 - f4_12
   - h4_12 = 0
 R278: - V3_12 + 3 f4_12 + 2 h4_12 + 3 32ac4_12 + 4 42ac4_12 <= 0
 R279: - V3_12 + 2 f4_12 + h4_12 + 32ac4_12 + 2 42ac4_12 + V4_12 - f4_13
   - h4_13 = 0
 R280: - V3_13 + 3 f4_13 + 2 h4_13 + 3 32ac4_13 + 4 42ac4_13 <= 0
 R281: - V3_13 + 2 f4_13 + h4_13 + 32ac4_13 + 2 42ac4_13 + V4_13 - f4_14
   - h4_14 = 0
 R282: - V3_14 + 3 f4_14 + 2 h4_14 + 3 32ac4_14 + 4 42ac4_14 <= 0
 R283: - V3_14 + 2 f4_14 + h4_14 + 32ac4_14 + 2 42ac4_14 + V4_14 - f4_15
   - h4_15 = 0
 R284: - V3_15 + 3 f4_15 + 2 h4_15 + 3 32ac4_15 + 4 42ac4_15 <= 0
 R285: - V3_15 + 2 f4_15 + h4_15 + 32ac4_15 + 2 42ac4_15 + V4_15 - f4_16
   - h4_16 = 0
 R286: - V3_16 + 3 f4_16 + 2 h4_16 + 3 32ac4_16 + 4 42ac4_16 <= 0
 R287: - V3_16 + 2 f4_16 + h4_16 + 32ac4_16 + 2 42ac4_16 + V4_16 - f4_17
   - h4_17 = 0
 R288: - V3_17 + 3 f4_17 + 2 h4_17 + 3 32ac4_17 + 4 42ac4_17 <= 0
 R289: - V3_17 + 2 f4_17 + h4_17 + 32ac4_17 + 2 42ac4_17 + V4_17 - f4_18
   - h4_18 = 0
 R290: - V3_18 + 3 f4_18 + 2 h4_18 + 3 32ac4_18 + 4 42ac4_18 <= 0
 R291: - V3_18 + 2 f4_18 + h4_18 + 32ac4_18 + 2 42ac4_18 + V4_18 - f4_19
   - h4_19 = 0
 R292: - V3_19 + 3 f4_19 + 2 h4_19 + 3 32ac4_19 + 4 42ac4_19 <= 0
 R293: - V3_19 + 2 f4_19 + h4_19 + 32ac4_19 + 2 42ac4_19 + V4_19 - f4_20
   - h4_20 = 0
 R294: - V3_20 + 3 f4_20 + 2 h4_20 + 3 32ac4_20 + 4 42ac4_20 <= 0
 R295: - V3_20 + 2 f4_20 + h4_20 + 32ac4_20 + 2 42ac4_20 + V4_20 - f4_21
   - h4_21 = 0
 R296: - V3_21 + 3 f4_21 + 2 h4_21 + 3 32ac4_21 + 4 42ac4_21 <= 0
 R297: - V3_21 + 2 f4_21 + h4_21 + 32ac4_21 + 2 42ac4_21 + V4_21 - f4_22
   - h4_22 = 0
 R298: - V3_22 + 3 f4_22 + 2 h4_22 + 3 32ac4_22 + 4 42ac4_22 <= 0
 R299: - V3_22 + 2 f4_22 + h4_22 + 32ac4_22 + 2 42ac4_22 + V4_22 - f4_23
   - h4_23 = 0
 R300: - V3_23 + 3 f4_23 + 2 h4_23 + 3 32ac4_23 + 4 42ac4_23 <= 0
 R301: - V3_23 + 2 f4_23 + h4_23 + 32ac4_23 + 2 42ac4_23 + V4_23 - f4_24
   - h4_24 = 0
 R302: - V3_24 + 3 f4_24 + 2 h4_24 + 3 32ac4_24 + 4 42ac4_24 <= 0
 R303: - V3_24 + 2 f4_24 + h4_24 + 32ac4_24 + 2 42ac4_24 + V4_24 - f4_25
   - h4_25 = 0
 R304: - V3_25 + 3 f4_25 + 2 h4_25 + 3 32ac4_25 + 4 42ac4_25 <= 0
 R305: - V3_25 + 2 f4_25 + h4_25 + 32ac4_25 + 2 42ac4_25 + V4_25 - f4_26
   - h4_26 = 0
 R306: - V3_26 + 3 f4_26 + 2 h4_26 + 3 32ac4_26 + 4 42ac4_26 <= 0
 R307: - V3_26 + 2 f4_26 + h4_26 + 32ac4_26 + 2 42ac4_26 + V4_26 - f4_27
   - h4_27 = 0
 R308: - V3_27 + 3 f4_27 + 2 h4_27 + 3 32ac4_27 + 4 42ac4_27 <= 0
 R309: - V3_27 + 2 f4_27 + h4_27 + 32ac4_27 + 2 42ac4_27 + V4_27 - f4_28
   - h4_28 = 0
 R310: - V3_28 + 3 f4_28 + 2 h4_28 + 3 32ac4_28 + 4 42ac4_28 <= 0
 R311: - V3_28 + 2 f4_28 + h4_28 + 32ac4_28 + 2 42ac4_28 + V4_28 - f4_29
   - h4_29 = 0
 R312: - V3_29 + 3 f4_29 + 2 h4_29 + 3 32ac4_29 + 4 42ac4_29 <= 0
 R313: - V3_29 + 2 f4_29 + h4_29 + 32ac4_29 + 2 42ac4_29 + V4_29 - f4_30
   - h4_30 = 0
 R314: - V3_30 + 3 f4_30 + 2 h4_30 + 3 32ac4_30 + 4 42ac4_30 <= 0
 R315: - V3_30 + 2 f4_30 + h4_30 + 32ac4_30 + 2 42ac4_30 + V4_30 - f4_31
   - h4_31 = 0
 R316: - V3_31 + 3 f4_31 + 2 h4_31 + 3 32ac4_31 + 4 42ac4_31 <= 0
 R317: - V3_31 + 2 f4_31 + h4_31 + 32ac4_31 + 2 42ac4_31 + V4_31 - f4_32
   - h4_32 = 0
 R318: - V3_32 + 3 f4_32 + 2 h4_32 + 3 32ac4_32 + 4 42ac4_32 <= 0
 R319: - V3_32 + 2 f4_32 + h4_32 + 32ac4_32 + 2 42ac4_32 + V4_32 - f4_33
   - h4_33 = 0
 R320: - V3_33 + 3 f4_33 + 2 h4_33 + 3 32ac4_33 + 4 42ac4_33 <= 0
 R321: - V3_33 + 2 f4_33 + h4_33 + 32ac4_33 + 2 42ac4_33 + V4_33 - f4_34
   - h4_34 = 0
 R322: V4_34 = 1
 R323: f4_34 = 0
 R324: h4_34 = 0
 R325: 32ac4_34 = 0
 R326: 42ac4_34 = 0
 R327: V4_0 <= 2
 R328: V4_1 <= 2
 R329: V4_2 <= 2
 R330: V4_3 <= 2
 R331: V4_4 <= 2
 R332: V4_4 >= 1
 R333: V4_5 <= 2
 R334: V4_5 >= 1
 R335: V4_6 <= 2
 R336: V4_6 >= 1
 R337: V4_7 <= 2
 R338: V4_7 >= 1
 R339: V4_8 <= 2
 R340: V4_8 >= 1
 R341: V4_9 <= 2
 R342: V4_9 >= 1
 R343: V4_10 <= 2
 R344: V4_10 >= 1
 R345: V4_11 <= 2
 R346: V4_11 >= 1
 R347: V4_12 <= 2
 R348: V4_12 >= 1
 R349: V4_13 <= 2
 R350: V4_13 >= 1
 R351: V4_14 <= 2
 R352: V4_14 >= 1
 R353: V4_15 <= 2
 R354: V4_15 >= 1
 R355: V4_16 <= 2
 R356: V4_16 >= 1
 R357: V4_17 <= 2
 R358: V4_17 >= 1
 R359: V4_18 <= 2
 R360: V4_18 >= 1
 R361: V4_19 <= 2
 R362: V4_19 >= 1
 R363: V4_20 <= 2
 R364: V4_20 >= 1
 R365: V4_21 <= 2
 R366: V4_21 >= 1
 R367: V4_22 <= 2
 R368: V4_22 >= 1
 R369: V4_23 <= 2
 R370: V4_23 >= 1
 R371: V4_24 <= 2
 R372: V4_24 >= 1
 R373: V4_25 <= 2
 R374: V4_25 >= 1
 R375: V4_26 <= 2
 R376: V4_26 >= 1
 R377: V4_27 <= 2
 R378: V4_27 >= 1
 R379: V4_28 <= 2
 R380: V4_28 >= 1
 R381: V4_29 <= 2
 R382: V4_29 >= 1
 R383: V4_30 <= 2
 R384: V4_30 >= 1
 R385: V4_31 <= 2
 R386: V4_31 >= 1
 R387: V4_32 <= 2
 R388: V4_32 >= 1
 R389: V4_33 <= 2
 R390: V4_33 >= 1
 R391: 32ac1_0 + 32ac1_1 + 32ac1_2 + 32ac1_3 + 32ac1_4 + 32ac1_5 + 32ac1_6
   + 32ac1_7 + 32ac1_8 + 32ac1_9 + 32ac1_10 + 32ac1_11 + 32ac1_12
   + 32ac1_13 + 32ac1_14 + 32ac1_15 + 32ac1_16 + 32ac1_17 + 32ac1_18
   + 32ac1_19 + 32ac1_20 + 32ac1_21 + 32ac1_22 + 32ac1_23 + 32ac1_24
   + 32ac1_25 + 32ac1_26 + 32ac1_27 + 32ac1_28 + 32ac1_29 + 32ac1_30
   + 32ac1_31 + 32ac1_32 + 32ac1_33 + 32ac1_34 + 32ac2_0 + 32ac2_1
   + 32ac2_2 + 32ac2_3 + 32ac2_4 + 32ac2_5 + 32ac2_6 + 32ac2_7 + 32ac2_8
   + 32ac2_9 + 32ac2_10 + 32ac2_11 + 32ac2_12 + 32ac2_13 + 32ac2_14
   + 32ac2_15 + 32ac2_16 + 32ac2_17 + 32ac2_18 + 32ac2_19 + 32ac2_20
   + 32ac2_21 + 32ac2_22 + 32ac2_23 + 32ac2_24 + 32ac2_25 + 32ac2_26
   + 32ac2_27 + 32ac2_28 + 32ac2_29 + 32ac2_30 + 32ac2_31 + 32ac2_32
   + 32ac2_33 + 32ac2_34 + 32ac3_0 + 32ac3_1 + 32ac3_2 + 32ac3_3 + 32ac3_4
   + 32ac3_5 + 32ac3_6 + 32ac3_7 + 32ac3_8 + 32ac3_9 + 32ac3_10 + 32ac3_11
   + 32ac3_12 + 32ac3_13 + 32ac3_14 + 32ac3_15 + 32ac3_16 + 32ac3_17
   + 32ac3_18 + 32ac3_19 + 32ac3_20 + 32ac3_21 + 32ac3_22 + 32ac3_23
   + 32ac3_24 + 32ac3_25 + 32ac3_26 + 32ac3_27 + 32ac3_28 + 32ac3_29
   + 32ac3_30 + 32ac3_31 + 32ac3_32 + 32ac3_33 + 32ac3_34 + 32ac4_0
   + 32ac4_1 + 32ac4_2 + 32ac4_3 + 32ac4_4 + 32ac4_5 + 32ac4_6 + 32ac4_7
   + 32ac4_8 + 32ac4_9 + 32ac4_10 + 32ac4_11 + 32ac4_12 + 32ac4_13
   + 32ac4_14 + 32ac4_15 + 32ac4_16 + 32ac4_17 + 32ac4_18 + 32ac4_19
   + 32ac4_20 + 32ac4_21 + 32ac4_22 + 32ac4_23 + 32ac4_24 + 32ac4_25
   + 32ac4_26 + 32ac4_27 + 32ac4_28 + 32ac4_29 + 32ac4_30 + 32ac4_31
   + 32ac4_32 + 32ac4_33 + 32ac4_34 <= 32
 R392: 42ac1_0 + 42ac1_1 + 42ac1_2 + 42ac1_3 + 42ac1_4 + 42ac1_5 + 42ac1_6
   + 42ac1_7 + 42ac1_8 + 42ac1_9 + 42ac1_10 + 42ac1_11 + 42ac1_12
   + 42ac1_13 + 42ac1_14 + 42ac1_15 + 42ac1_16 + 42ac1_17 + 42ac1_18
   + 42ac1_19 + 42ac1_20 + 42ac1_21 + 42ac1_22 + 42ac1_23 + 42ac1_24
   + 42ac1_25 + 42ac1_26 + 42ac1_27 + 42ac1_28 + 42ac1_29 + 42ac1_30
   + 42ac1_31 + 42ac1_32 + 42ac1_33 + 42ac1_34 + 42ac2_0 + 42ac2_1
   + 42ac2_2 + 42ac2_3 + 42ac2_4 + 42ac2_5 + 42ac2_6 + 42ac2_7 + 42ac2_8
   + 42ac2_9 + 42ac2_10 + 42ac2_11 + 42ac2_12 + 42ac2_13 + 42ac2_14
   + 42ac2_15 + 42ac2_16 + 42ac2_17 + 42ac2_18 + 42ac2_19 + 42ac2_20
   + 42ac2_21 + 42ac2_22 + 42ac2_23 + 42ac2_24 + 42ac2_25 + 42ac2_26
   + 42ac2_27 + 42ac2_28 + 42ac2_29 + 42ac2_30 + 42ac2_31 + 42ac2_32
   + 42ac2_33 + 42ac2_34 + 42ac3_0 + 42ac3_1 + 42ac3_2 + 42ac3_3 + 42ac3_4
   + 42ac3_5 + 42ac3_6 + 42ac3_7 + 42ac3_8 + 42ac3_9 + 42ac3_10 + 42ac3_11
   + 42ac3_12 + 42ac3_13 + 42ac3_14 + 42ac3_15 + 42ac3_16 + 42ac3_17
   + 42ac3_18 + 42ac3_19 + 42ac3_20 + 42ac3_21 + 42ac3_22 + 42ac3_23
   + 42ac3_24 + 42ac3_25 + 42ac3_26 + 42ac3_27 + 42ac3_28 + 42ac3_29
   + 42ac3_30 + 42ac3_31 + 42ac3_32 + 42ac3_33 + 42ac3_34 + 42ac4_0
   + 42ac4_1 + 42ac4_2 + 42ac4_3 + 42ac4_4 + 42ac4_5 + 42ac4_6 + 42ac4_7
   + 42ac4_8 + 42ac4_9 + 42ac4_10 + 42ac4_11 + 42ac4_12 + 42ac4_13
   + 42ac4_14 + 42ac4_15 + 42ac4_16 + 42ac4_17 + 42ac4_18 + 42ac4_19
   + 42ac4_20 + 42ac4_21 + 42ac4_22 + 42ac4_23 + 42ac4_24 + 42ac4_25
   + 42ac4_26 + 42ac4_27 + 42ac4_28 + 42ac4_29 + 42ac4_30 + 42ac4_31
   + 42ac4_32 + 42ac4_33 + 42ac4_34 <= 54
 R393: f1_0 + f1_1 + f1_2 + f1_3 + f1_4 + f1_5 + f1_6 + f1_7 + f1_8 + f1_9
   + f1_10 + f1_11 + f1_12 + f1_13 + f1_14 + f1_15 + f1_16 + f1_17 + f1_18
   + f1_19 + f1_20 + f1_21 + f1_22 + f1_23 + f1_24 + f1_25 + f1_26 + f1_27
   + f1_28 + f1_29 + f1_30 + f1_31 + f1_32 + f1_33 + f1_34 + f2_0 + f2_1
   + f2_2 + f2_3 + f2_4 + f2_5 + f2_6 + f2_7 + f2_8 + f2_9 + f2_10 + f2_11
   + f2_12 + f2_13 + f2_14 + f2_15 + f2_16 + f2_17 + f2_18 + f2_19 + f2_20
   + f2_21 + f2_22 + f2_23 + f2_24 + f2_25 + f2_26 + f2_27 + f2_28 + f2_29
   + f2_30 + f2_31 + f2_32 + f2_33 + f2_34 + f3_0 + f3_1 + f3_2 + f3_3
   + f3_4 + f3_5 + f3_6 + f3_7 + f3_8 + f3_9 + f3_10 + f3_11 + f3_12
   + f3_13 + f3_14 + f3_15 + f3_16 + f3_17 + f3_18 + f3_19 + f3_20 + f3_21
   + f3_22 + f3_23 + f3_24 + f3_25 + f3_26 + f3_27 + f3_28 + f3_29 + f3_30
   + f3_31 + f3_32 + f3_33 + f3_34 + f4_0 + f4_1 + f4_2 + f4_3 + f4_4
   + f4_5 + f4_6 + f4_7 + f4_8 + f4_9 + f4_10 + f4_11 + f4_12 + f4_13
   + f4_14 + f4_15 + f4_16 + f4_17 + f4_18 + f4_19 + f4_20 + f4_21 + f4_22
   + f4_23 + f4_24 + f4_25 + f4_26 + f4_27 + f4_28 + f4_29 + f4_30 + f4_31
   + f4_32 + f4_33 + f4_34 - fs = 0
 R394: h1_0 + h1_1 + h1_2 + h1_3 + h1_4 + h1_5 + h1_6 + h1_7 + h1_8 + h1_9
   + h1_10 + h1_11 + h1_12 + h1_13 + h1_14 + h1_15 + h1_16 + h1_17 + h1_18
   + h1_19 + h1_20 + h1_21 + h1_22 + h1_23 + h1_24 + h1_25 + h1_26 + h1_27
   + h1_28 + h1_29 + h1_30 + h1_31 + h1_32 + h1_33 + h1_34 + h2_0 + h2_1
   + h2_2 + h2_3 + h2_4 + h2_5 + h2_6 + h2_7 + h2_8 + h2_9 + h2_10 + h2_11
   + h2_12 + h2_13 + h2_14 + h2_15 + h2_16 + h2_17 + h2_18 + h2_19 + h2_20
   + h2_21 + h2_22 + h2_23 + h2_24 + h2_25 + h2_26 + h2_27 + h2_28 + h2_29
   + h2_30 + h2_31 + h2_32 + h2_33 + h2_34 + h3_0 + h3_1 + h3_2 + h3_3
   + h3_4 + h3_5 + h3_6 + h3_7 + h3_8 + h3_9 + h3_10 + h3_11 + h3_12
   + h3_13 + h3_14 + h3_15 + h3_16 + h3_17 + h3_18 + h3_19 + h3_20 + h3_21
   + h3_22 + h3_23 + h3_24 + h3_25 + h3_26 + h3_27 + h3_28 + h3_29 + h3_30
   + h3_31 + h3_32 + h3_33 + h3_34 + h4_0 + h4_1 + h4_2 + h4_3 + h4_4
   + h4_5 + h4_6 + h4_7 + h4_8 + h4_9 + h4_10 + h4_11 + h4_12 + h4_13
   + h4_14 + h4_15 + h4_16 + h4_17 + h4_18 + h4_19 + h4_20 + h4_21 + h4_22
   + h4_23 + h4_24 + h4_25 + h4_26 + h4_27 + h4_28 + h4_29 + h4_30 + h4_31
   + h4_32 + h4_33 + h4_34 - hs = 0
 R395: 32ac1_0 + 32ac1_1 + 32ac1_2 + 32ac1_3 + 32ac1_4 + 32ac1_5 + 32ac1_6
   + 32ac1_7 + 32ac1_8 + 32ac1_9 + 32ac1_10 + 32ac1_11 + 32ac1_12
   + 32ac1_13 + 32ac1_14 + 32ac1_15 + 32ac1_16 + 32ac1_17 + 32ac1_18
   + 32ac1_19 + 32ac1_20 + 32ac1_21 + 32ac1_22 + 32ac1_23 + 32ac1_24
   + 32ac1_25 + 32ac1_26 + 32ac1_27 + 32ac1_28 + 32ac1_29 + 32ac1_30
   + 32ac1_31 + 32ac1_32 + 32ac1_33 + 32ac1_34 + 32ac2_0 + 32ac2_1
   + 32ac2_2 + 32ac2_3 + 32ac2_4 + 32ac2_5 + 32ac2_6 + 32ac2_7 + 32ac2_8
   + 32ac2_9 + 32ac2_10 + 32ac2_11 + 32ac2_12 + 32ac2_13 + 32ac2_14
   + 32ac2_15 + 32ac2_16 + 32ac2_17 + 32ac2_18 + 32ac2_19 + 32ac2_20
   + 32ac2_21 + 32ac2_22 + 32ac2_23 + 32ac2_24 + 32ac2_25 + 32ac2_26
   + 32ac2_27 + 32ac2_28 + 32ac2_29 + 32ac2_30 + 32ac2_31 + 32ac2_32
   + 32ac2_33 + 32ac2_34 + 32ac3_0 + 32ac3_1 + 32ac3_2 + 32ac3_3 + 32ac3_4
   + 32ac3_5 + 32ac3_6 + 32ac3_7 + 32ac3_8 + 32ac3_9 + 32ac3_10 + 32ac3_11
   + 32ac3_12 + 32ac3_13 + 32ac3_14 + 32ac3_15 + 32ac3_16 + 32ac3_17
   + 32ac3_18 + 32ac3_19 + 32ac3_20 + 32ac3_21 + 32ac3_22 + 32ac3_23
   + 32ac3_24 + 32ac3_25 + 32ac3_26 + 32ac3_27 + 32ac3_28 + 32ac3_29
   + 32ac3_30 + 32ac3_31 + 32ac3_32 + 32ac3_33 + 32ac3_34 + 32ac4_0
   + 32ac4_1 + 32ac4_2 + 32ac4_3 + 32ac4_4 + 32ac4_5 + 32ac4_6 + 32ac4_7
   + 32ac4_8 + 32ac4_9 + 32ac4_10 + 32ac4_11 + 32ac4_12 + 32ac4_13
   + 32ac4_14 + 32ac4_15 + 32ac4_16 + 32ac4_17 + 32ac4_18 + 32ac4_19
   + 32ac4_20 + 32ac4_21 + 32ac4_22 + 32ac4_23 + 32ac4_24 + 32ac4_25
   + 32ac4_26 + 32ac4_27 + 32ac4_28 + 32ac4_29 + 32ac4_30 + 32ac4_31
   + 32ac4_32 + 32ac4_33 + 32ac4_34 - ac32s = 0
 R396: 42ac1_0 + 42ac1_1 + 42ac1_2 + 42ac1_3 + 42ac1_4 + 42ac1_5 + 42ac1_6
   + 42ac1_7 + 42ac1_8 + 42ac1_9 + 42ac1_10 + 42ac1_11 + 42ac1_12
   + 42ac1_13 + 42ac1_14 + 42ac1_15 + 42ac1_16 + 42ac1_17 + 42ac1_18
   + 42ac1_19 + 42ac1_20 + 42ac1_21 + 42ac1_22 + 42ac1_23 + 42ac1_24
   + 42ac1_25 + 42ac1_26 + 42ac1_27 + 42ac1_28 + 42ac1_29 + 42ac1_30
   + 42ac1_31 + 42ac1_32 + 42ac1_33 + 42ac1_34 + 42ac2_0 + 42ac2_1
   + 42ac2_2 + 42ac2_3 + 42ac2_4 + 42ac2_5 + 42ac2_6 + 42ac2_7 + 42ac2_8
   + 42ac2_9 + 42ac2_10 + 42ac2_11 + 42ac2_12 + 42ac2_13 + 42ac2_14
   + 42ac2_15 + 42ac2_16 + 42ac2_17 + 42ac2_18 + 42ac2_19 + 42ac2_20
   + 42ac2_21 + 42ac2_22 + 42ac2_23 + 42ac2_24 + 42ac2_25 + 42ac2_26
   + 42ac2_27 + 42ac2_28 + 42ac2_29 + 42ac2_30 + 42ac2_31 + 42ac2_32
   + 42ac2_33 + 42ac2_34 + 42ac3_0 + 42ac3_1 + 42ac3_2 + 42ac3_3 + 42ac3_4
   + 42ac3_5 + 42ac3_6 + 42ac3_7 + 42ac3_8 + 42ac3_9 + 42ac3_10 + 42ac3_11
   + 42ac3_12 + 42ac3_13 + 42ac3_14 + 42ac3_15 + 42ac3_16 + 42ac3_17
   + 42ac3_18 + 42ac3_19 + 42ac3_20 + 42ac3_21 + 42ac3_22 + 42ac3_23
   + 42ac3_24 + 42ac3_25 + 42ac3_26 + 42ac3_27 + 42ac3_28 + 42ac3_29
   + 42ac3_30 + 42ac3_31 + 42ac3_32 + 42ac3_33 + 42ac3_34 + 42ac4_0
   + 42ac4_1 + 42ac4_2 + 42ac4_3 + 42ac4_4 + 42ac4_5 + 42ac4_6 + 42ac4_7
   + 42ac4_8 + 42ac4_9 + 42ac4_10 + 42ac4_11 + 42ac4_12 + 42ac4_13
   + 42ac4_14 + 42ac4_15 + 42ac4_16 + 42ac4_17 + 42ac4_18 + 42ac4_19
   + 42ac4_20 + 42ac4_21 + 42ac4_22 + 42ac4_23 + 42ac4_24 + 42ac4_25
   + 42ac4_26 + 42ac4_27 + 42ac4_28 + 42ac4_29 + 42ac4_30 + 42ac4_31
   + 42ac4_32 + 42ac4_33 + 42ac4_34 - ac42s = 0
Bounds
Generals
 V0_0 V0_1 V0_2 V0_3 V0_4 V0_5 V0_6 V0_7 V0_8 V0_9 V0_10 V0_11 V0_12 V0_13
 V0_14 V0_15 V0_16 V0_17 V0_18 V0_19 V0_20 V0_21 V0_22 V0_23 V0_24 V0_25
 V0_26 V0_27 V0_28 V0_29 V0_30 V0_31 V0_32 V0_33 V0_34 f1_0 h1_0 32ac1_0
 42ac1_0 V1_0 f1_1 h1_1 32ac1_1 42ac1_1 V1_1 f1_2 h1_2 32ac1_2 42ac1_2 V1_2
 f1_3 h1_3 32ac1_3 42ac1_3 V1_3 f1_4 h1_4 32ac1_4 42ac1_4 V1_4 f1_5 h1_5
 32ac1_5 42ac1_5 V1_5 f1_6 h1_6 32ac1_6 42ac1_6 V1_6 f1_7 h1_7 32ac1_7
 42ac1_7 V1_7 f1_8 h1_8 32ac1_8 42ac1_8 V1_8 f1_9 h1_9 32ac1_9 42ac1_9 V1_9
 f1_10 h1_10 32ac1_10 42ac1_10 V1_10 f1_11 h1_11 32ac1_11 42ac1_11 V1_11
 f1_12 h1_12 32ac1_12 42ac1_12 V1_12 f1_13 h1_13 32ac1_13 42ac1_13 V1_13
 f1_14 h1_14 32ac1_14 42ac1_14 V1_14 f1_15 h1_15 32ac1_15 42ac1_15 V1_15
 f1_16 h1_16 32ac1_16 42ac1_16 V1_16 f1_17 h1_17 32ac1_17 42ac1_17 V1_17
 f1_18 h1_18 32ac1_18 42ac1_18 V1_18 f1_19 h1_19 32ac1_19 42ac1_19 V1_19
 f1_20 h1_20 32ac1_20 42ac1_20 V1_20 f1_21 h1_21 32ac1_21 42ac1_21 V1_21
 f1_22 h1_22 32ac1_22 42ac1_22 V1_22 f1_23 h1_23 32ac1_23 42ac1_23 V1_23
 f1_24 h1_24 32ac1_24 42ac1_24 V1_24 f1_25 h1_25 32ac1_25 42ac1_25 V1_25
 f1_26 h1_26 32ac1_26 42ac1_26 V1_26 f1_27 h1_27 32ac1_27 42ac1_27 V1_27
 f1_28 h1_28 32ac1_28 42ac1_28 V1_28 f1_29 h1_29 32ac1_29 42ac1_29 V1_29
 f1_30 h1_30 32ac1_30 42ac1_30 V1_30 f1_31 h1_31 32ac1_31 42ac1_31 V1_31
 f1_32 h1_32 32ac1_32 42ac1_32 V1_32 f1_33 h1_33 32ac1_33 42ac1_33 V1_33
 f1_34 h1_34 32ac1_34 42ac1_34 V1_34 f2_0 h2_0 32ac2_0 42ac2_0 V2_0 f2_1
 h2_1 32ac2_1 42ac2_1 V2_1 f2_2 h2_2 32ac2_2 42ac2_2 V2_2 f2_3 h2_3 32ac2_3
 42ac2_3 V2_3 f2_4 h2_4 32ac2_4 42ac2_4 V2_4 f2_5 h2_5 32ac2_5 42ac2_5 V2_5
 f2_6 h2_6 32ac2_6 42ac2_6 V2_6 f2_7 h2_7 32ac2_7 42ac2_7 V2_7 f2_8 h2_8
 32ac2_8 42ac2_8 V2_8 f2_9 h2_9 32ac2_9 42ac2_9 V2_9 f2_10 h2_10 32ac2_10
 42ac2_10 V2_10 f2_11 h2_11 32ac2_11 42ac2_11 V2_11 f2_12 h2_12 32ac2_12
 42ac2_12 V2_12 f2_13 h2_13 32ac2_13 42ac2_13 V2_13 f2_14 h2_14 32ac2_14
 42ac2_14 V2_14 f2_15 h2_15 32ac2_15 42ac2_15 V2_15 f2_16 h2_16 32ac2_16
 42ac2_16 V2_16 f2_17 h2_17 32ac2_17 42ac2_17 V2_17 f2_18 h2_18 32ac2_18
 42ac2_18 V2_18 f2_19 h2_19 32ac2_19 42ac2_19 V2_19 f2_20 h2_20 32ac2_20
 42ac2_20 V2_20 f2_21 h2_21 32ac2_21 42ac2_21 V2_21 f2_22 h2_22 32ac2_22
 42ac2_22 V2_22 f2_23 h2_23 32ac2_23 42ac2_23 V2_23 f2_24 h2_24 32ac2_24
 42ac2_24 V2_24 f2_25 h2_25 32ac2_25 42ac2_25 V2_25 f2_26 h2_26 32ac2_26
 42ac2_26 V2_26 f2_27 h2_27 32ac2_27 42ac2_27 V2_27 f2_28 h2_28 32ac2_28
 42ac2_28 V2_28 f2_29 h2_29 32ac2_29 42ac2_29 V2_29 f2_30 h2_30 32ac2_30
 42ac2_30 V2_30 f2_31 h2_31 32ac2_31 42ac2_31 V2_31 f2_32 h2_32 32ac2_32
 42ac2_32 V2_32 f2_33 h2_33 32ac2_33 42ac2_33 V2_33 f2_34 h2_34 32ac2_34
 42ac2_34 V2_34 f3_0 h3_0 32ac3_0 42ac3_0 V3_0 f3_1 h3_1 32ac3_1 42ac3_1
 V3_1 f3_2 h3_2 32ac3_2 42ac3_2 V3_2 f3_3 h3_3 32ac3_3 42ac3_3 V3_3 f3_4
 h3_4 32ac3_4 42ac3_4 V3_4 f3_5 h3_5 32ac3_5 42ac3_5 V3_5 f3_6 h3_6 32ac3_6
 42ac3_6 V3_6 f3_7 h3_7 32ac3_7 42ac3_7 V3_7 f3_8 h3_8 32ac3_8 42ac3_8 V3_8
 f3_9 h3_9 32ac3_9 42ac3_9 V3_9 f3_10 h3_10 32ac3_10 42ac3_10 V3_10 f3_11
 h3_11 32ac3_11 42ac3_11 V3_11 f3_12 h3_12 32ac3_12 42ac3_12 V3_12 f3_13
 h3_13 32ac3_13 42ac3_13 V3_13 f3_14 h3_14 32ac3_14 42ac3_14 V3_14 f3_15
 h3_15 32ac3_15 42ac3_15 V3_15 f3_16 h3_16 32ac3_16 42ac3_16 V3_16 f3_17
 h3_17 32ac3_17 42ac3_17 V3_17 f3_18 h3_18 32ac3_18 42ac3_18 V3_18 f3_19
 h3_19 32ac3_19 42ac3_19 V3_19 f3_20 h3_20 32ac3_20 42ac3_20 V3_20 f3_21
 h3_21 32ac3_21 42ac3_21 V3_21 f3_22 h3_22 32ac3_22 42ac3_22 V3_22 f3_23
 h3_23 32ac3_23 42ac3_23 V3_23 f3_24 h3_24 32ac3_24 42ac3_24 V3_24 f3_25
 h3_25 32ac3_25 42ac3_25 V3_25 f3_26 h3_26 32ac3_26 42ac3_26 V3_26 f3_27
 h3_27 32ac3_27 42ac3_27 V3_27 f3_28 h3_28 32ac3_28 42ac3_28 V3_28 f3_29
 h3_29 32ac3_29 42ac3_29 V3_29 f3_30 h3_30 32ac3_30 42ac3_30 V3_30 f3_31
 h3_31 32ac3_31 42ac3_31 V3_31 f3_32 h3_32 32ac3_32 42ac3_32 V3_32 f3_33
 h3_33 32ac3_33 42ac3_33 V3_33 f3_34 h3_34 32ac3_34 42ac3_34 V3_34 f4_0
 h4_0 32ac4_0 42ac4_0 V4_0 f4_1 h4_1 32ac4_1 42ac4_1 V4_1 f4_2 h4_2 32ac4_2
 42ac4_2 V4_2 f4_3 h4_3 32ac4_3 42ac4_3 V4_3 f4_4 h4_4 32ac4_4 42ac4_4 V4_4
 f4_5 h4_5 32ac4_5 42ac4_5 V4_5 f4_6 h4_6 32ac4_6 42ac4_6 V4_6 f4_7 h4_7
 32ac4_7 42ac4_7 V4_7 f4_8 h4_8 32ac4_8 42ac4_8 V4_8 f4_9 h4_9 32ac4_9
 42ac4_9 V4_9 f4_10 h4_10 32ac4_10 42ac4_10 V4_10 f4_11 h4_11 32ac4_11
 42ac4_11 V4_11 f4_12 h4_12 32ac4_12 42ac4_12 V4_12 f4_13 h4_13 32ac4_13
 42ac4_13 V4_13 f4_14 h4_14 32ac4_14 42ac4_14 V4_14 f4_15 h4_15 32ac4_15
 42ac4_15 V4_15 f4_16 h4_16 32ac4_16 42ac4_16 V4_16 f4_17 h4_17 32ac4_17
 42ac4_17 V4_17 f4_18 h4_18 32ac4_18 42ac4_18 V4_18 f4_19 h4_19 32ac4_19
 42ac4_19 V4_19 f4_20 h4_20 32ac4_20 42ac4_20 V4_20 f4_21 h4_21 32ac4_21
 42ac4_21 V4_21 f4_22 h4_22 32ac4_22 42ac4_22 V4_22 f4_23 h4_23 32ac4_23
 42ac4_23 V4_23 f4_24 h4_24 32ac4_24 42ac4_24 V4_24 f4_25 h4_25 32ac4_25
 42ac4_25 V4_25 f4_26 h4_26 32ac4_26 42ac4_26 V4_26 f4_27 h4_27 32ac4_27
 42ac4_27 V4_27 f4_28 h4_28 32ac4_28 42ac4_28 V4_28 f4_29 h4_29 32ac4_29
 42ac4_29 V4_29 f4_30 h4_30 32ac4_30 42ac4_30 V4_30 f4_31 h4_31 32ac4_31
 42ac4_31 V4_31 f4_32 h4_32 32ac4_32 42ac4_32 V4_32 f4_33 h4_33 32ac4_33
 42ac4_33 V4_33 f4_34 h4_34 32ac4_34 42ac4_34 V4_34 hs fs ac32s ac42s
End
