\ LP format - for model browsing. Use MPS format to capture full model detail.
\ Signature: 0x20339d9062799c9c
Minimize
  2.66 hs + 5.05 fs + 2.66 ac32s + 4.78 ac42s + 0.00999999977648258 E
Subject To
 R0: V0_0 = 0
 R1: V0_1 = 0
 R2: V0_2 = 0
 R3: V0_3 = 0
 R4: V0_4 = 1
 R5: V0_5 = 2
 R6: V0_6 = 3
 R7: V0_7 = 4
 R8: V0_8 = 5
 R9: V0_9 = 6
 R10: V0_10 = 7
 R11: V0_11 = 8
 R12: V0_12 = 9
 R13: V0_13 = 10
 R14: V0_14 = 11
 R15: V0_15 = 12
 R16: V0_16 = 13
 R17: V0_17 = 14
 R18: V0_18 = 15
 R19: V0_19 = 16
 R20: V0_20 = 15
 R21: V0_21 = 14
 R22: V0_22 = 13
 R23: V0_23 = 12
 R24: V0_24 = 11
 R25: V0_25 = 10
 R26: V0_26 = 9
 R27: V0_27 = 8
 R28: V0_28 = 7
 R29: V0_29 = 6
 R30: V0_30 = 5
 R31: V0_31 = 4
 R32: V0_32 = 3
 R33: V0_33 = 2
 R34: V0_34 = 1
 R35: - 0.015625 32ac1_0 - 0.0546875 42ac1_0 + e1_0 = 0
 R36: - V0_0 + 3 f1_0 + 2 h1_0 + 3 32ac1_0 + 4 42ac1_0 <= 0
 R37: - V0_0 + 2 f1_0 + h1_0 + 32ac1_0 + 2 42ac1_0 + V1_0 - f1_1 - h1_1
   = 0
 R38: - 0.015625 32ac1_1 - 0.0546875 42ac1_1 + e1_1 = 0
 R39: - V0_1 + 3 f1_1 + 2 h1_1 + 3 32ac1_1 + 4 42ac1_1 <= 0
 R40: - V0_1 + 2 f1_1 + h1_1 + 32ac1_1 + 2 42ac1_1 + V1_1 - f1_2 - h1_2
   = 0
 R41: - 0.015625 32ac1_2 - 0.0546875 42ac1_2 + e1_2 = 0
 R42: - V0_2 + 3 f1_2 + 2 h1_2 + 3 32ac1_2 + 4 42ac1_2 <= 0
 R43: - V0_2 + 2 f1_2 + h1_2 + 32ac1_2 + 2 42ac1_2 + V1_2 - f1_3 - h1_3
   = 0
 R44: - 0.015625 32ac1_3 - 0.0546875 42ac1_3 + e1_3 = 0
 R45: - V0_3 + 3 f1_3 + 2 h1_3 + 3 32ac1_3 + 4 42ac1_3 <= 0
 R46: - V0_3 + 2 f1_3 + h1_3 + 32ac1_3 + 2 42ac1_3 + V1_3 - f1_4 - h1_4
   = 0
 R47: - 0.015625 32ac1_4 - 0.0546875 42ac1_4 + e1_4 = 0
 R48: - V0_4 + 3 f1_4 + 2 h1_4 + 3 32ac1_4 + 4 42ac1_4 <= 0
 R49: - V0_4 + 2 f1_4 + h1_4 + 32ac1_4 + 2 42ac1_4 + V1_4 - f1_5 - h1_5
   = 0
 R50: - 0.015625 32ac1_5 - 0.0546875 42ac1_5 + e1_5 = 0
 R51: - V0_5 + 3 f1_5 + 2 h1_5 + 3 32ac1_5 + 4 42ac1_5 <= 0
 R52: - V0_5 + 2 f1_5 + h1_5 + 32ac1_5 + 2 42ac1_5 + V1_5 - f1_6 - h1_6
   = 0
 R53: - 0.015625 32ac1_6 - 0.0546875 42ac1_6 + e1_6 = 0
 R54: - V0_6 + 3 f1_6 + 2 h1_6 + 3 32ac1_6 + 4 42ac1_6 <= 0
 R55: - V0_6 + 2 f1_6 + h1_6 + 32ac1_6 + 2 42ac1_6 + V1_6 - f1_7 - h1_7
   = 0
 R56: - 0.015625 32ac1_7 - 0.0546875 42ac1_7 + e1_7 = 0
 R57: - V0_7 + 3 f1_7 + 2 h1_7 + 3 32ac1_7 + 4 42ac1_7 <= 0
 R58: - V0_7 + 2 f1_7 + h1_7 + 32ac1_7 + 2 42ac1_7 + V1_7 - f1_8 - h1_8
   = 0
 R59: - 0.015625 32ac1_8 - 0.0546875 42ac1_8 + e1_8 = 0
 R60: - V0_8 + 3 f1_8 + 2 h1_8 + 3 32ac1_8 + 4 42ac1_8 <= 0
 R61: - V0_8 + 2 f1_8 + h1_8 + 32ac1_8 + 2 42ac1_8 + V1_8 - f1_9 - h1_9
   = 0
 R62: - 0.015625 32ac1_9 - 0.0546875 42ac1_9 + e1_9 = 0
 R63: - V0_9 + 3 f1_9 + 2 h1_9 + 3 32ac1_9 + 4 42ac1_9 <= 0
 R64: - V0_9 + 2 f1_9 + h1_9 + 32ac1_9 + 2 42ac1_9 + V1_9 - f1_10 - h1_10
   = 0
 R65: - 0.015625 32ac1_10 - 0.0546875 42ac1_10 + e1_10 = 0
 R66: - V0_10 + 3 f1_10 + 2 h1_10 + 3 32ac1_10 + 4 42ac1_10 <= 0
 R67: - V0_10 + 2 f1_10 + h1_10 + 32ac1_10 + 2 42ac1_10 + V1_10 - f1_11
   - h1_11 = 0
 R68: - 0.015625 32ac1_11 - 0.0546875 42ac1_11 + e1_11 = 0
 R69: - V0_11 + 3 f1_11 + 2 h1_11 + 3 32ac1_11 + 4 42ac1_11 <= 0
 R70: - V0_11 + 2 f1_11 + h1_11 + 32ac1_11 + 2 42ac1_11 + V1_11 - f1_12
   - h1_12 = 0
 R71: - 0.015625 32ac1_12 - 0.0546875 42ac1_12 + e1_12 = 0
 R72: - V0_12 + 3 f1_12 + 2 h1_12 + 3 32ac1_12 + 4 42ac1_12 <= 0
 R73: - V0_12 + 2 f1_12 + h1_12 + 32ac1_12 + 2 42ac1_12 + V1_12 - f1_13
   - h1_13 = 0
 R74: - 0.015625 32ac1_13 - 0.0546875 42ac1_13 + e1_13 = 0
 R75: - V0_13 + 3 f1_13 + 2 h1_13 + 3 32ac1_13 + 4 42ac1_13 <= 0
 R76: - V0_13 + 2 f1_13 + h1_13 + 32ac1_13 + 2 42ac1_13 + V1_13 - f1_14
   - h1_14 = 0
 R77: - 0.015625 32ac1_14 - 0.0546875 42ac1_14 + e1_14 = 0
 R78: - V0_14 + 3 f1_14 + 2 h1_14 + 3 32ac1_14 + 4 42ac1_14 <= 0
 R79: - V0_14 + 2 f1_14 + h1_14 + 32ac1_14 + 2 42ac1_14 + V1_14 - f1_15
   - h1_15 = 0
 R80: - 0.015625 32ac1_15 - 0.0546875 42ac1_15 + e1_15 = 0
 R81: - V0_15 + 3 f1_15 + 2 h1_15 + 3 32ac1_15 + 4 42ac1_15 <= 0
 R82: - V0_15 + 2 f1_15 + h1_15 + 32ac1_15 + 2 42ac1_15 + V1_15 - f1_16
   - h1_16 = 0
 R83: - 0.015625 32ac1_16 - 0.0546875 42ac1_16 + e1_16 = 0
 R84: - V0_16 + 3 f1_16 + 2 h1_16 + 3 32ac1_16 + 4 42ac1_16 <= 0
 R85: - V0_16 + 2 f1_16 + h1_16 + 32ac1_16 + 2 42ac1_16 + V1_16 - f1_17
   - h1_17 = 0
 R86: - 0.015625 32ac1_17 - 0.0546875 42ac1_17 + e1_17 = 0
 R87: - V0_17 + 3 f1_17 + 2 h1_17 + 3 32ac1_17 + 4 42ac1_17 <= 0
 R88: - V0_17 + 2 f1_17 + h1_17 + 32ac1_17 + 2 42ac1_17 + V1_17 - f1_18
   - h1_18 = 0
 R89: - 0.015625 32ac1_18 - 0.0546875 42ac1_18 + e1_18 = 0
 R90: - V0_18 + 3 f1_18 + 2 h1_18 + 3 32ac1_18 + 4 42ac1_18 <= 0
 R91: - V0_18 + 2 f1_18 + h1_18 + 32ac1_18 + 2 42ac1_18 + V1_18 - f1_19
   - h1_19 = 0
 R92: - 0.015625 32ac1_19 - 0.0546875 42ac1_19 + e1_19 = 0
 R93: - V0_19 + 3 f1_19 + 2 h1_19 + 3 32ac1_19 + 4 42ac1_19 <= 0
 R94: - V0_19 + 2 f1_19 + h1_19 + 32ac1_19 + 2 42ac1_19 + V1_19 - f1_20
   - h1_20 = 0
 R95: - 0.015625 32ac1_20 - 0.0546875 42ac1_20 + e1_20 = 0
 R96: - V0_20 + 3 f1_20 + 2 h1_20 + 3 32ac1_20 + 4 42ac1_20 <= 0
 R97: - V0_20 + 2 f1_20 + h1_20 + 32ac1_20 + 2 42ac1_20 + V1_20 - f1_21
   - h1_21 = 0
 R98: - 0.015625 32ac1_21 - 0.0546875 42ac1_21 + e1_21 = 0
 R99: - V0_21 + 3 f1_21 + 2 h1_21 + 3 32ac1_21 + 4 42ac1_21 <= 0
 R100: - V0_21 + 2 f1_21 + h1_21 + 32ac1_21 + 2 42ac1_21 + V1_21 - f1_22
   - h1_22 = 0
 R101: - 0.015625 32ac1_22 - 0.0546875 42ac1_22 + e1_22 = 0
 R102: - V0_22 + 3 f1_22 + 2 h1_22 + 3 32ac1_22 + 4 42ac1_22 <= 0
 R103: - V0_22 + 2 f1_22 + h1_22 + 32ac1_22 + 2 42ac1_22 + V1_22 - f1_23
   - h1_23 = 0
 R104: - 0.015625 32ac1_23 - 0.0546875 42ac1_23 + e1_23 = 0
 R105: - V0_23 + 3 f1_23 + 2 h1_23 + 3 32ac1_23 + 4 42ac1_23 <= 0
 R106: - V0_23 + 2 f1_23 + h1_23 + 32ac1_23 + 2 42ac1_23 + V1_23 - f1_24
   - h1_24 = 0
 R107: - 0.015625 32ac1_24 - 0.0546875 42ac1_24 + e1_24 = 0
 R108: - V0_24 + 3 f1_24 + 2 h1_24 + 3 32ac1_24 + 4 42ac1_24 <= 0
 R109: - V0_24 + 2 f1_24 + h1_24 + 32ac1_24 + 2 42ac1_24 + V1_24 - f1_25
   - h1_25 = 0
 R110: - 0.015625 32ac1_25 - 0.0546875 42ac1_25 + e1_25 = 0
 R111: - V0_25 + 3 f1_25 + 2 h1_25 + 3 32ac1_25 + 4 42ac1_25 <= 0
 R112: - V0_25 + 2 f1_25 + h1_25 + 32ac1_25 + 2 42ac1_25 + V1_25 - f1_26
   - h1_26 = 0
 R113: - 0.015625 32ac1_26 - 0.0546875 42ac1_26 + e1_26 = 0
 R114: - V0_26 + 3 f1_26 + 2 h1_26 + 3 32ac1_26 + 4 42ac1_26 <= 0
 R115: - V0_26 + 2 f1_26 + h1_26 + 32ac1_26 + 2 42ac1_26 + V1_26 - f1_27
   - h1_27 = 0
 R116: - 0.015625 32ac1_27 - 0.0546875 42ac1_27 + e1_27 = 0
 R117: - V0_27 + 3 f1_27 + 2 h1_27 + 3 32ac1_27 + 4 42ac1_27 <= 0
 R118: - V0_27 + 2 f1_27 + h1_27 + 32ac1_27 + 2 42ac1_27 + V1_27 - f1_28
   - h1_28 = 0
 R119: - 0.015625 32ac1_28 - 0.0546875 42ac1_28 + e1_28 = 0
 R120: - V0_28 + 3 f1_28 + 2 h1_28 + 3 32ac1_28 + 4 42ac1_28 <= 0
 R121: - V0_28 + 2 f1_28 + h1_28 + 32ac1_28 + 2 42ac1_28 + V1_28 - f1_29
   - h1_29 = 0
 R122: - 0.015625 32ac1_29 - 0.0546875 42ac1_29 + e1_29 = 0
 R123: - V0_29 + 3 f1_29 + 2 h1_29 + 3 32ac1_29 + 4 42ac1_29 <= 0
 R124: - V0_29 + 2 f1_29 + h1_29 + 32ac1_29 + 2 42ac1_29 + V1_29 - f1_30
   - h1_30 = 0
 R125: - 0.015625 32ac1_30 - 0.0546875 42ac1_30 + e1_30 = 0
 R126: - V0_30 + 3 f1_30 + 2 h1_30 + 3 32ac1_30 + 4 42ac1_30 <= 0
 R127: - V0_30 + 2 f1_30 + h1_30 + 32ac1_30 + 2 42ac1_30 + V1_30 - f1_31
   - h1_31 = 0
 R128: - 0.015625 32ac1_31 - 0.0546875 42ac1_31 + e1_31 = 0
 R129: - V0_31 + 3 f1_31 + 2 h1_31 + 3 32ac1_31 + 4 42ac1_31 <= 0
 R130: - V0_31 + 2 f1_31 + h1_31 + 32ac1_31 + 2 42ac1_31 + V1_31 - f1_32
   - h1_32 = 0
 R131: - 0.015625 32ac1_32 - 0.0546875 42ac1_32 + e1_32 = 0
 R132: - V0_32 + 3 f1_32 + 2 h1_32 + 3 32ac1_32 + 4 42ac1_32 <= 0
 R133: - V0_32 + 2 f1_32 + h1_32 + 32ac1_32 + 2 42ac1_32 + V1_32 - f1_33
   - h1_33 = 0
 R134: - 0.015625 32ac1_33 - 0.0546875 42ac1_33 + e1_33 = 0
 R135: - V0_33 + 3 f1_33 + 2 h1_33 + 3 32ac1_33 + 4 42ac1_33 <= 0
 R136: - V0_33 + 2 f1_33 + h1_33 + 32ac1_33 + 2 42ac1_33 + V1_33 - f1_34
   - h1_34 = 0
 R137: V1_34 = 1
 R138: f1_34 = 0
 R139: h1_34 = 0
 R140: 32ac1_34 = 0
 R141: 42ac1_34 = 0
 R142: e1_34 = 0
 R143: - 0.015625 32ac2_0 - 0.0546875 42ac2_0 + e2_0 = 0
 R144: - V1_0 + 3 f2_0 + 2 h2_0 + 3 32ac2_0 + 4 42ac2_0 <= 0
 R145: - V1_0 + 2 f2_0 + h2_0 + 32ac2_0 + 2 42ac2_0 + V2_0 - f2_1 - h2_1
   = 0
 R146: - 0.015625 32ac2_1 - 0.0546875 42ac2_1 + e2_1 = 0
 R147: - V1_1 + 3 f2_1 + 2 h2_1 + 3 32ac2_1 + 4 42ac2_1 <= 0
 R148: - V1_1 + 2 f2_1 + h2_1 + 32ac2_1 + 2 42ac2_1 + V2_1 - f2_2 - h2_2
   = 0
 R149: - 0.015625 32ac2_2 - 0.0546875 42ac2_2 + e2_2 = 0
 R150: - V1_2 + 3 f2_2 + 2 h2_2 + 3 32ac2_2 + 4 42ac2_2 <= 0
 R151: - V1_2 + 2 f2_2 + h2_2 + 32ac2_2 + 2 42ac2_2 + V2_2 - f2_3 - h2_3
   = 0
 R152: - 0.015625 32ac2_3 - 0.0546875 42ac2_3 + e2_3 = 0
 R153: - V1_3 + 3 f2_3 + 2 h2_3 + 3 32ac2_3 + 4 42ac2_3 <= 0
 R154: - V1_3 + 2 f2_3 + h2_3 + 32ac2_3 + 2 42ac2_3 + V2_3 - f2_4 - h2_4
   = 0
 R155: - 0.015625 32ac2_4 - 0.0546875 42ac2_4 + e2_4 = 0
 R156: - V1_4 + 3 f2_4 + 2 h2_4 + 3 32ac2_4 + 4 42ac2_4 <= 0
 R157: - V1_4 + 2 f2_4 + h2_4 + 32ac2_4 + 2 42ac2_4 + V2_4 - f2_5 - h2_5
   = 0
 R158: - 0.015625 32ac2_5 - 0.0546875 42ac2_5 + e2_5 = 0
 R159: - V1_5 + 3 f2_5 + 2 h2_5 + 3 32ac2_5 + 4 42ac2_5 <= 0
 R160: - V1_5 + 2 f2_5 + h2_5 + 32ac2_5 + 2 42ac2_5 + V2_5 - f2_6 - h2_6
   = 0
 R161: - 0.015625 32ac2_6 - 0.0546875 42ac2_6 + e2_6 = 0
 R162: - V1_6 + 3 f2_6 + 2 h2_6 + 3 32ac2_6 + 4 42ac2_6 <= 0
 R163: - V1_6 + 2 f2_6 + h2_6 + 32ac2_6 + 2 42ac2_6 + V2_6 - f2_7 - h2_7
   = 0
 R164: - 0.015625 32ac2_7 - 0.0546875 42ac2_7 + e2_7 = 0
 R165: - V1_7 + 3 f2_7 + 2 h2_7 + 3 32ac2_7 + 4 42ac2_7 <= 0
 R166: - V1_7 + 2 f2_7 + h2_7 + 32ac2_7 + 2 42ac2_7 + V2_7 - f2_8 - h2_8
   = 0
 R167: - 0.015625 32ac2_8 - 0.0546875 42ac2_8 + e2_8 = 0
 R168: - V1_8 + 3 f2_8 + 2 h2_8 + 3 32ac2_8 + 4 42ac2_8 <= 0
 R169: - V1_8 + 2 f2_8 + h2_8 + 32ac2_8 + 2 42ac2_8 + V2_8 - f2_9 - h2_9
   = 0
 R170: - 0.015625 32ac2_9 - 0.0546875 42ac2_9 + e2_9 = 0
 R171: - V1_9 + 3 f2_9 + 2 h2_9 + 3 32ac2_9 + 4 42ac2_9 <= 0
 R172: - V1_9 + 2 f2_9 + h2_9 + 32ac2_9 + 2 42ac2_9 + V2_9 - f2_10 - h2_10
   = 0
 R173: - 0.015625 32ac2_10 - 0.0546875 42ac2_10 + e2_10 = 0
 R174: - V1_10 + 3 f2_10 + 2 h2_10 + 3 32ac2_10 + 4 42ac2_10 <= 0
 R175: - V1_10 + 2 f2_10 + h2_10 + 32ac2_10 + 2 42ac2_10 + V2_10 - f2_11
   - h2_11 = 0
 R176: - 0.015625 32ac2_11 - 0.0546875 42ac2_11 + e2_11 = 0
 R177: - V1_11 + 3 f2_11 + 2 h2_11 + 3 32ac2_11 + 4 42ac2_11 <= 0
 R178: - V1_11 + 2 f2_11 + h2_11 + 32ac2_11 + 2 42ac2_11 + V2_11 - f2_12
   - h2_12 = 0
 R179: - 0.015625 32ac2_12 - 0.0546875 42ac2_12 + e2_12 = 0
 R180: - V1_12 + 3 f2_12 + 2 h2_12 + 3 32ac2_12 + 4 42ac2_12 <= 0
 R181: - V1_12 + 2 f2_12 + h2_12 + 32ac2_12 + 2 42ac2_12 + V2_12 - f2_13
   - h2_13 = 0
 R182: - 0.015625 32ac2_13 - 0.0546875 42ac2_13 + e2_13 = 0
 R183: - V1_13 + 3 f2_13 + 2 h2_13 + 3 32ac2_13 + 4 42ac2_13 <= 0
 R184: - V1_13 + 2 f2_13 + h2_13 + 32ac2_13 + 2 42ac2_13 + V2_13 - f2_14
   - h2_14 = 0
 R185: - 0.015625 32ac2_14 - 0.0546875 42ac2_14 + e2_14 = 0
 R186: - V1_14 + 3 f2_14 + 2 h2_14 + 3 32ac2_14 + 4 42ac2_14 <= 0
 R187: - V1_14 + 2 f2_14 + h2_14 + 32ac2_14 + 2 42ac2_14 + V2_14 - f2_15
   - h2_15 = 0
 R188: - 0.015625 32ac2_15 - 0.0546875 42ac2_15 + e2_15 = 0
 R189: - V1_15 + 3 f2_15 + 2 h2_15 + 3 32ac2_15 + 4 42ac2_15 <= 0
 R190: - V1_15 + 2 f2_15 + h2_15 + 32ac2_15 + 2 42ac2_15 + V2_15 - f2_16
   - h2_16 = 0
 R191: - 0.015625 32ac2_16 - 0.0546875 42ac2_16 + e2_16 = 0
 R192: - V1_16 + 3 f2_16 + 2 h2_16 + 3 32ac2_16 + 4 42ac2_16 <= 0
 R193: - V1_16 + 2 f2_16 + h2_16 + 32ac2_16 + 2 42ac2_16 + V2_16 - f2_17
   - h2_17 = 0
 R194: - 0.015625 32ac2_17 - 0.0546875 42ac2_17 + e2_17 = 0
 R195: - V1_17 + 3 f2_17 + 2 h2_17 + 3 32ac2_17 + 4 42ac2_17 <= 0
 R196: - V1_17 + 2 f2_17 + h2_17 + 32ac2_17 + 2 42ac2_17 + V2_17 - f2_18
   - h2_18 = 0
 R197: - 0.015625 32ac2_18 - 0.0546875 42ac2_18 + e2_18 = 0
 R198: - V1_18 + 3 f2_18 + 2 h2_18 + 3 32ac2_18 + 4 42ac2_18 <= 0
 R199: - V1_18 + 2 f2_18 + h2_18 + 32ac2_18 + 2 42ac2_18 + V2_18 - f2_19
   - h2_19 = 0
 R200: - 0.015625 32ac2_19 - 0.0546875 42ac2_19 + e2_19 = 0
 R201: - V1_19 + 3 f2_19 + 2 h2_19 + 3 32ac2_19 + 4 42ac2_19 <= 0
 R202: - V1_19 + 2 f2_19 + h2_19 + 32ac2_19 + 2 42ac2_19 + V2_19 - f2_20
   - h2_20 = 0
 R203: - 0.015625 32ac2_20 - 0.0546875 42ac2_20 + e2_20 = 0
 R204: - V1_20 + 3 f2_20 + 2 h2_20 + 3 32ac2_20 + 4 42ac2_20 <= 0
 R205: - V1_20 + 2 f2_20 + h2_20 + 32ac2_20 + 2 42ac2_20 + V2_20 - f2_21
   - h2_21 = 0
 R206: - 0.015625 32ac2_21 - 0.0546875 42ac2_21 + e2_21 = 0
 R207: - V1_21 + 3 f2_21 + 2 h2_21 + 3 32ac2_21 + 4 42ac2_21 <= 0
 R208: - V1_21 + 2 f2_21 + h2_21 + 32ac2_21 + 2 42ac2_21 + V2_21 - f2_22
   - h2_22 = 0
 R209: - 0.015625 32ac2_22 - 0.0546875 42ac2_22 + e2_22 = 0
 R210: - V1_22 + 3 f2_22 + 2 h2_22 + 3 32ac2_22 + 4 42ac2_22 <= 0
 R211: - V1_22 + 2 f2_22 + h2_22 + 32ac2_22 + 2 42ac2_22 + V2_22 - f2_23
   - h2_23 = 0
 R212: - 0.015625 32ac2_23 - 0.0546875 42ac2_23 + e2_23 = 0
 R213: - V1_23 + 3 f2_23 + 2 h2_23 + 3 32ac2_23 + 4 42ac2_23 <= 0
 R214: - V1_23 + 2 f2_23 + h2_23 + 32ac2_23 + 2 42ac2_23 + V2_23 - f2_24
   - h2_24 = 0
 R215: - 0.015625 32ac2_24 - 0.0546875 42ac2_24 + e2_24 = 0
 R216: - V1_24 + 3 f2_24 + 2 h2_24 + 3 32ac2_24 + 4 42ac2_24 <= 0
 R217: - V1_24 + 2 f2_24 + h2_24 + 32ac2_24 + 2 42ac2_24 + V2_24 - f2_25
   - h2_25 = 0
 R218: - 0.015625 32ac2_25 - 0.0546875 42ac2_25 + e2_25 = 0
 R219: - V1_25 + 3 f2_25 + 2 h2_25 + 3 32ac2_25 + 4 42ac2_25 <= 0
 R220: - V1_25 + 2 f2_25 + h2_25 + 32ac2_25 + 2 42ac2_25 + V2_25 - f2_26
   - h2_26 = 0
 R221: - 0.015625 32ac2_26 - 0.0546875 42ac2_26 + e2_26 = 0
 R222: - V1_26 + 3 f2_26 + 2 h2_26 + 3 32ac2_26 + 4 42ac2_26 <= 0
 R223: - V1_26 + 2 f2_26 + h2_26 + 32ac2_26 + 2 42ac2_26 + V2_26 - f2_27
   - h2_27 = 0
 R224: - 0.015625 32ac2_27 - 0.0546875 42ac2_27 + e2_27 = 0
 R225: - V1_27 + 3 f2_27 + 2 h2_27 + 3 32ac2_27 + 4 42ac2_27 <= 0
 R226: - V1_27 + 2 f2_27 + h2_27 + 32ac2_27 + 2 42ac2_27 + V2_27 - f2_28
   - h2_28 = 0
 R227: - 0.015625 32ac2_28 - 0.0546875 42ac2_28 + e2_28 = 0
 R228: - V1_28 + 3 f2_28 + 2 h2_28 + 3 32ac2_28 + 4 42ac2_28 <= 0
 R229: - V1_28 + 2 f2_28 + h2_28 + 32ac2_28 + 2 42ac2_28 + V2_28 - f2_29
   - h2_29 = 0
 R230: - 0.015625 32ac2_29 - 0.0546875 42ac2_29 + e2_29 = 0
 R231: - V1_29 + 3 f2_29 + 2 h2_29 + 3 32ac2_29 + 4 42ac2_29 <= 0
 R232: - V1_29 + 2 f2_29 + h2_29 + 32ac2_29 + 2 42ac2_29 + V2_29 - f2_30
   - h2_30 = 0
 R233: - 0.015625 32ac2_30 - 0.0546875 42ac2_30 + e2_30 = 0
 R234: - V1_30 + 3 f2_30 + 2 h2_30 + 3 32ac2_30 + 4 42ac2_30 <= 0
 R235: - V1_30 + 2 f2_30 + h2_30 + 32ac2_30 + 2 42ac2_30 + V2_30 - f2_31
   - h2_31 = 0
 R236: - 0.015625 32ac2_31 - 0.0546875 42ac2_31 + e2_31 = 0
 R237: - V1_31 + 3 f2_31 + 2 h2_31 + 3 32ac2_31 + 4 42ac2_31 <= 0
 R238: - V1_31 + 2 f2_31 + h2_31 + 32ac2_31 + 2 42ac2_31 + V2_31 - f2_32
   - h2_32 = 0
 R239: - 0.015625 32ac2_32 - 0.0546875 42ac2_32 + e2_32 = 0
 R240: - V1_32 + 3 f2_32 + 2 h2_32 + 3 32ac2_32 + 4 42ac2_32 <= 0
 R241: - V1_32 + 2 f2_32 + h2_32 + 32ac2_32 + 2 42ac2_32 + V2_32 - f2_33
   - h2_33 = 0
 R242: - 0.015625 32ac2_33 - 0.0546875 42ac2_33 + e2_33 = 0
 R243: - V1_33 + 3 f2_33 + 2 h2_33 + 3 32ac2_33 + 4 42ac2_33 <= 0
 R244: - V1_33 + 2 f2_33 + h2_33 + 32ac2_33 + 2 42ac2_33 + V2_33 - f2_34
   - h2_34 = 0
 R245: V2_34 = 1
 R246: f2_34 = 0
 R247: h2_34 = 0
 R248: 32ac2_34 = 0
 R249: 42ac2_34 = 0
 R250: e2_34 = 0
 R251: - 0.015625 32ac3_0 - 0.0546875 42ac3_0 + e3_0 = 0
 R252: - V2_0 + 3 f3_0 + 2 h3_0 + 3 32ac3_0 + 4 42ac3_0 <= 0
 R253: - V2_0 + 2 f3_0 + h3_0 + 32ac3_0 + 2 42ac3_0 + V3_0 - f3_1 - h3_1
   = 0
 R254: - 0.015625 32ac3_1 - 0.0546875 42ac3_1 + e3_1 = 0
 R255: - V2_1 + 3 f3_1 + 2 h3_1 + 3 32ac3_1 + 4 42ac3_1 <= 0
 R256: - V2_1 + 2 f3_1 + h3_1 + 32ac3_1 + 2 42ac3_1 + V3_1 - f3_2 - h3_2
   = 0
 R257: - 0.015625 32ac3_2 - 0.0546875 42ac3_2 + e3_2 = 0
 R258: - V2_2 + 3 f3_2 + 2 h3_2 + 3 32ac3_2 + 4 42ac3_2 <= 0
 R259: - V2_2 + 2 f3_2 + h3_2 + 32ac3_2 + 2 42ac3_2 + V3_2 - f3_3 - h3_3
   = 0
 R260: - 0.015625 32ac3_3 - 0.0546875 42ac3_3 + e3_3 = 0
 R261: - V2_3 + 3 f3_3 + 2 h3_3 + 3 32ac3_3 + 4 42ac3_3 <= 0
 R262: - V2_3 + 2 f3_3 + h3_3 + 32ac3_3 + 2 42ac3_3 + V3_3 - f3_4 - h3_4
   = 0
 R263: - 0.015625 32ac3_4 - 0.0546875 42ac3_4 + e3_4 = 0
 R264: - V2_4 + 3 f3_4 + 2 h3_4 + 3 32ac3_4 + 4 42ac3_4 <= 0
 R265: - V2_4 + 2 f3_4 + h3_4 + 32ac3_4 + 2 42ac3_4 + V3_4 - f3_5 - h3_5
   = 0
 R266: - 0.015625 32ac3_5 - 0.0546875 42ac3_5 + e3_5 = 0
 R267: - V2_5 + 3 f3_5 + 2 h3_5 + 3 32ac3_5 + 4 42ac3_5 <= 0
 R268: - V2_5 + 2 f3_5 + h3_5 + 32ac3_5 + 2 42ac3_5 + V3_5 - f3_6 - h3_6
   = 0
 R269: - 0.015625 32ac3_6 - 0.0546875 42ac3_6 + e3_6 = 0
 R270: - V2_6 + 3 f3_6 + 2 h3_6 + 3 32ac3_6 + 4 42ac3_6 <= 0
 R271: - V2_6 + 2 f3_6 + h3_6 + 32ac3_6 + 2 42ac3_6 + V3_6 - f3_7 - h3_7
   = 0
 R272: - 0.015625 32ac3_7 - 0.0546875 42ac3_7 + e3_7 = 0
 R273: - V2_7 + 3 f3_7 + 2 h3_7 + 3 32ac3_7 + 4 42ac3_7 <= 0
 R274: - V2_7 + 2 f3_7 + h3_7 + 32ac3_7 + 2 42ac3_7 + V3_7 - f3_8 - h3_8
   = 0
 R275: - 0.015625 32ac3_8 - 0.0546875 42ac3_8 + e3_8 = 0
 R276: - V2_8 + 3 f3_8 + 2 h3_8 + 3 32ac3_8 + 4 42ac3_8 <= 0
 R277: - V2_8 + 2 f3_8 + h3_8 + 32ac3_8 + 2 42ac3_8 + V3_8 - f3_9 - h3_9
   = 0
 R278: - 0.015625 32ac3_9 - 0.0546875 42ac3_9 + e3_9 = 0
 R279: - V2_9 + 3 f3_9 + 2 h3_9 + 3 32ac3_9 + 4 42ac3_9 <= 0
 R280: - V2_9 + 2 f3_9 + h3_9 + 32ac3_9 + 2 42ac3_9 + V3_9 - f3_10 - h3_10
   = 0
 R281: - 0.015625 32ac3_10 - 0.0546875 42ac3_10 + e3_10 = 0
 R282: - V2_10 + 3 f3_10 + 2 h3_10 + 3 32ac3_10 + 4 42ac3_10 <= 0
 R283: - V2_10 + 2 f3_10 + h3_10 + 32ac3_10 + 2 42ac3_10 + V3_10 - f3_11
   - h3_11 = 0
 R284: - 0.015625 32ac3_11 - 0.0546875 42ac3_11 + e3_11 = 0
 R285: - V2_11 + 3 f3_11 + 2 h3_11 + 3 32ac3_11 + 4 42ac3_11 <= 0
 R286: - V2_11 + 2 f3_11 + h3_11 + 32ac3_11 + 2 42ac3_11 + V3_11 - f3_12
   - h3_12 = 0
 R287: - 0.015625 32ac3_12 - 0.0546875 42ac3_12 + e3_12 = 0
 R288: - V2_12 + 3 f3_12 + 2 h3_12 + 3 32ac3_12 + 4 42ac3_12 <= 0
 R289: - V2_12 + 2 f3_12 + h3_12 + 32ac3_12 + 2 42ac3_12 + V3_12 - f3_13
   - h3_13 = 0
 R290: - 0.015625 32ac3_13 - 0.0546875 42ac3_13 + e3_13 = 0
 R291: - V2_13 + 3 f3_13 + 2 h3_13 + 3 32ac3_13 + 4 42ac3_13 <= 0
 R292: - V2_13 + 2 f3_13 + h3_13 + 32ac3_13 + 2 42ac3_13 + V3_13 - f3_14
   - h3_14 = 0
 R293: - 0.015625 32ac3_14 - 0.0546875 42ac3_14 + e3_14 = 0
 R294: - V2_14 + 3 f3_14 + 2 h3_14 + 3 32ac3_14 + 4 42ac3_14 <= 0
 R295: - V2_14 + 2 f3_14 + h3_14 + 32ac3_14 + 2 42ac3_14 + V3_14 - f3_15
   - h3_15 = 0
 R296: - 0.015625 32ac3_15 - 0.0546875 42ac3_15 + e3_15 = 0
 R297: - V2_15 + 3 f3_15 + 2 h3_15 + 3 32ac3_15 + 4 42ac3_15 <= 0
 R298: - V2_15 + 2 f3_15 + h3_15 + 32ac3_15 + 2 42ac3_15 + V3_15 - f3_16
   - h3_16 = 0
 R299: - 0.015625 32ac3_16 - 0.0546875 42ac3_16 + e3_16 = 0
 R300: - V2_16 + 3 f3_16 + 2 h3_16 + 3 32ac3_16 + 4 42ac3_16 <= 0
 R301: - V2_16 + 2 f3_16 + h3_16 + 32ac3_16 + 2 42ac3_16 + V3_16 - f3_17
   - h3_17 = 0
 R302: - 0.015625 32ac3_17 - 0.0546875 42ac3_17 + e3_17 = 0
 R303: - V2_17 + 3 f3_17 + 2 h3_17 + 3 32ac3_17 + 4 42ac3_17 <= 0
 R304: - V2_17 + 2 f3_17 + h3_17 + 32ac3_17 + 2 42ac3_17 + V3_17 - f3_18
   - h3_18 = 0
 R305: - 0.015625 32ac3_18 - 0.0546875 42ac3_18 + e3_18 = 0
 R306: - V2_18 + 3 f3_18 + 2 h3_18 + 3 32ac3_18 + 4 42ac3_18 <= 0
 R307: - V2_18 + 2 f3_18 + h3_18 + 32ac3_18 + 2 42ac3_18 + V3_18 - f3_19
   - h3_19 = 0
 R308: - 0.015625 32ac3_19 - 0.0546875 42ac3_19 + e3_19 = 0
 R309: - V2_19 + 3 f3_19 + 2 h3_19 + 3 32ac3_19 + 4 42ac3_19 <= 0
 R310: - V2_19 + 2 f3_19 + h3_19 + 32ac3_19 + 2 42ac3_19 + V3_19 - f3_20
   - h3_20 = 0
 R311: - 0.015625 32ac3_20 - 0.0546875 42ac3_20 + e3_20 = 0
 R312: - V2_20 + 3 f3_20 + 2 h3_20 + 3 32ac3_20 + 4 42ac3_20 <= 0
 R313: - V2_20 + 2 f3_20 + h3_20 + 32ac3_20 + 2 42ac3_20 + V3_20 - f3_21
   - h3_21 = 0
 R314: - 0.015625 32ac3_21 - 0.0546875 42ac3_21 + e3_21 = 0
 R315: - V2_21 + 3 f3_21 + 2 h3_21 + 3 32ac3_21 + 4 42ac3_21 <= 0
 R316: - V2_21 + 2 f3_21 + h3_21 + 32ac3_21 + 2 42ac3_21 + V3_21 - f3_22
   - h3_22 = 0
 R317: - 0.015625 32ac3_22 - 0.0546875 42ac3_22 + e3_22 = 0
 R318: - V2_22 + 3 f3_22 + 2 h3_22 + 3 32ac3_22 + 4 42ac3_22 <= 0
 R319: - V2_22 + 2 f3_22 + h3_22 + 32ac3_22 + 2 42ac3_22 + V3_22 - f3_23
   - h3_23 = 0
 R320: - 0.015625 32ac3_23 - 0.0546875 42ac3_23 + e3_23 = 0
 R321: - V2_23 + 3 f3_23 + 2 h3_23 + 3 32ac3_23 + 4 42ac3_23 <= 0
 R322: - V2_23 + 2 f3_23 + h3_23 + 32ac3_23 + 2 42ac3_23 + V3_23 - f3_24
   - h3_24 = 0
 R323: - 0.015625 32ac3_24 - 0.0546875 42ac3_24 + e3_24 = 0
 R324: - V2_24 + 3 f3_24 + 2 h3_24 + 3 32ac3_24 + 4 42ac3_24 <= 0
 R325: - V2_24 + 2 f3_24 + h3_24 + 32ac3_24 + 2 42ac3_24 + V3_24 - f3_25
   - h3_25 = 0
 R326: - 0.015625 32ac3_25 - 0.0546875 42ac3_25 + e3_25 = 0
 R327: - V2_25 + 3 f3_25 + 2 h3_25 + 3 32ac3_25 + 4 42ac3_25 <= 0
 R328: - V2_25 + 2 f3_25 + h3_25 + 32ac3_25 + 2 42ac3_25 + V3_25 - f3_26
   - h3_26 = 0
 R329: - 0.015625 32ac3_26 - 0.0546875 42ac3_26 + e3_26 = 0
 R330: - V2_26 + 3 f3_26 + 2 h3_26 + 3 32ac3_26 + 4 42ac3_26 <= 0
 R331: - V2_26 + 2 f3_26 + h3_26 + 32ac3_26 + 2 42ac3_26 + V3_26 - f3_27
   - h3_27 = 0
 R332: - 0.015625 32ac3_27 - 0.0546875 42ac3_27 + e3_27 = 0
 R333: - V2_27 + 3 f3_27 + 2 h3_27 + 3 32ac3_27 + 4 42ac3_27 <= 0
 R334: - V2_27 + 2 f3_27 + h3_27 + 32ac3_27 + 2 42ac3_27 + V3_27 - f3_28
   - h3_28 = 0
 R335: - 0.015625 32ac3_28 - 0.0546875 42ac3_28 + e3_28 = 0
 R336: - V2_28 + 3 f3_28 + 2 h3_28 + 3 32ac3_28 + 4 42ac3_28 <= 0
 R337: - V2_28 + 2 f3_28 + h3_28 + 32ac3_28 + 2 42ac3_28 + V3_28 - f3_29
   - h3_29 = 0
 R338: - 0.015625 32ac3_29 - 0.0546875 42ac3_29 + e3_29 = 0
 R339: - V2_29 + 3 f3_29 + 2 h3_29 + 3 32ac3_29 + 4 42ac3_29 <= 0
 R340: - V2_29 + 2 f3_29 + h3_29 + 32ac3_29 + 2 42ac3_29 + V3_29 - f3_30
   - h3_30 = 0
 R341: - 0.015625 32ac3_30 - 0.0546875 42ac3_30 + e3_30 = 0
 R342: - V2_30 + 3 f3_30 + 2 h3_30 + 3 32ac3_30 + 4 42ac3_30 <= 0
 R343: - V2_30 + 2 f3_30 + h3_30 + 32ac3_30 + 2 42ac3_30 + V3_30 - f3_31
   - h3_31 = 0
 R344: - 0.015625 32ac3_31 - 0.0546875 42ac3_31 + e3_31 = 0
 R345: - V2_31 + 3 f3_31 + 2 h3_31 + 3 32ac3_31 + 4 42ac3_31 <= 0
 R346: - V2_31 + 2 f3_31 + h3_31 + 32ac3_31 + 2 42ac3_31 + V3_31 - f3_32
   - h3_32 = 0
 R347: - 0.015625 32ac3_32 - 0.0546875 42ac3_32 + e3_32 = 0
 R348: - V2_32 + 3 f3_32 + 2 h3_32 + 3 32ac3_32 + 4 42ac3_32 <= 0
 R349: - V2_32 + 2 f3_32 + h3_32 + 32ac3_32 + 2 42ac3_32 + V3_32 - f3_33
   - h3_33 = 0
 R350: - 0.015625 32ac3_33 - 0.0546875 42ac3_33 + e3_33 = 0
 R351: - V2_33 + 3 f3_33 + 2 h3_33 + 3 32ac3_33 + 4 42ac3_33 <= 0
 R352: - V2_33 + 2 f3_33 + h3_33 + 32ac3_33 + 2 42ac3_33 + V3_33 - f3_34
   - h3_34 = 0
 R353: V3_34 = 1
 R354: f3_34 = 0
 R355: h3_34 = 0
 R356: 32ac3_34 = 0
 R357: 42ac3_34 = 0
 R358: e3_34 = 0
 R359: - 0.015625 32ac4_0 - 0.0546875 42ac4_0 + e4_0 = 0
 R360: - V3_0 + 3 f4_0 + 2 h4_0 + 3 32ac4_0 + 4 42ac4_0 <= 0
 R361: - V3_0 + 2 f4_0 + h4_0 + 32ac4_0 + 2 42ac4_0 + V4_0 - f4_1 - h4_1
   = 0
 R362: - 0.015625 32ac4_1 - 0.0546875 42ac4_1 + e4_1 = 0
 R363: - V3_1 + 3 f4_1 + 2 h4_1 + 3 32ac4_1 + 4 42ac4_1 <= 0
 R364: - V3_1 + 2 f4_1 + h4_1 + 32ac4_1 + 2 42ac4_1 + V4_1 - f4_2 - h4_2
   = 0
 R365: - 0.015625 32ac4_2 - 0.0546875 42ac4_2 + e4_2 = 0
 R366: - V3_2 + 3 f4_2 + 2 h4_2 + 3 32ac4_2 + 4 42ac4_2 <= 0
 R367: - V3_2 + 2 f4_2 + h4_2 + 32ac4_2 + 2 42ac4_2 + V4_2 - f4_3 - h4_3
   = 0
 R368: - 0.015625 32ac4_3 - 0.0546875 42ac4_3 + e4_3 = 0
 R369: - V3_3 + 3 f4_3 + 2 h4_3 + 3 32ac4_3 + 4 42ac4_3 <= 0
 R370: - V3_3 + 2 f4_3 + h4_3 + 32ac4_3 + 2 42ac4_3 + V4_3 - f4_4 - h4_4
   = 0
 R371: - 0.015625 32ac4_4 - 0.0546875 42ac4_4 + e4_4 = 0
 R372: - V3_4 + 3 f4_4 + 2 h4_4 + 3 32ac4_4 + 4 42ac4_4 <= 0
 R373: - V3_4 + 2 f4_4 + h4_4 + 32ac4_4 + 2 42ac4_4 + V4_4 - f4_5 - h4_5
   = 0
 R374: - 0.015625 32ac4_5 - 0.0546875 42ac4_5 + e4_5 = 0
 R375: - V3_5 + 3 f4_5 + 2 h4_5 + 3 32ac4_5 + 4 42ac4_5 <= 0
 R376: - V3_5 + 2 f4_5 + h4_5 + 32ac4_5 + 2 42ac4_5 + V4_5 - f4_6 - h4_6
   = 0
 R377: - 0.015625 32ac4_6 - 0.0546875 42ac4_6 + e4_6 = 0
 R378: - V3_6 + 3 f4_6 + 2 h4_6 + 3 32ac4_6 + 4 42ac4_6 <= 0
 R379: - V3_6 + 2 f4_6 + h4_6 + 32ac4_6 + 2 42ac4_6 + V4_6 - f4_7 - h4_7
   = 0
 R380: - 0.015625 32ac4_7 - 0.0546875 42ac4_7 + e4_7 = 0
 R381: - V3_7 + 3 f4_7 + 2 h4_7 + 3 32ac4_7 + 4 42ac4_7 <= 0
 R382: - V3_7 + 2 f4_7 + h4_7 + 32ac4_7 + 2 42ac4_7 + V4_7 - f4_8 - h4_8
   = 0
 R383: - 0.015625 32ac4_8 - 0.0546875 42ac4_8 + e4_8 = 0
 R384: - V3_8 + 3 f4_8 + 2 h4_8 + 3 32ac4_8 + 4 42ac4_8 <= 0
 R385: - V3_8 + 2 f4_8 + h4_8 + 32ac4_8 + 2 42ac4_8 + V4_8 - f4_9 - h4_9
   = 0
 R386: - 0.015625 32ac4_9 - 0.0546875 42ac4_9 + e4_9 = 0
 R387: - V3_9 + 3 f4_9 + 2 h4_9 + 3 32ac4_9 + 4 42ac4_9 <= 0
 R388: - V3_9 + 2 f4_9 + h4_9 + 32ac4_9 + 2 42ac4_9 + V4_9 - f4_10 - h4_10
   = 0
 R389: - 0.015625 32ac4_10 - 0.0546875 42ac4_10 + e4_10 = 0
 R390: - V3_10 + 3 f4_10 + 2 h4_10 + 3 32ac4_10 + 4 42ac4_10 <= 0
 R391: - V3_10 + 2 f4_10 + h4_10 + 32ac4_10 + 2 42ac4_10 + V4_10 - f4_11
   - h4_11 = 0
 R392: - 0.015625 32ac4_11 - 0.0546875 42ac4_11 + e4_11 = 0
 R393: - V3_11 + 3 f4_11 + 2 h4_11 + 3 32ac4_11 + 4 42ac4_11 <= 0
 R394: - V3_11 + 2 f4_11 + h4_11 + 32ac4_11 + 2 42ac4_11 + V4_11 - f4_12
   - h4_12 = 0
 R395: - 0.015625 32ac4_12 - 0.0546875 42ac4_12 + e4_12 = 0
 R396: - V3_12 + 3 f4_12 + 2 h4_12 + 3 32ac4_12 + 4 42ac4_12 <= 0
 R397: - V3_12 + 2 f4_12 + h4_12 + 32ac4_12 + 2 42ac4_12 + V4_12 - f4_13
   - h4_13 = 0
 R398: - 0.015625 32ac4_13 - 0.0546875 42ac4_13 + e4_13 = 0
 R399: - V3_13 + 3 f4_13 + 2 h4_13 + 3 32ac4_13 + 4 42ac4_13 <= 0
 R400: - V3_13 + 2 f4_13 + h4_13 + 32ac4_13 + 2 42ac4_13 + V4_13 - f4_14
   - h4_14 = 0
 R401: - 0.015625 32ac4_14 - 0.0546875 42ac4_14 + e4_14 = 0
 R402: - V3_14 + 3 f4_14 + 2 h4_14 + 3 32ac4_14 + 4 42ac4_14 <= 0
 R403: - V3_14 + 2 f4_14 + h4_14 + 32ac4_14 + 2 42ac4_14 + V4_14 - f4_15
   - h4_15 = 0
 R404: - 0.015625 32ac4_15 - 0.0546875 42ac4_15 + e4_15 = 0
 R405: - V3_15 + 3 f4_15 + 2 h4_15 + 3 32ac4_15 + 4 42ac4_15 <= 0
 R406: - V3_15 + 2 f4_15 + h4_15 + 32ac4_15 + 2 42ac4_15 + V4_15 - f4_16
   - h4_16 = 0
 R407: - 0.015625 32ac4_16 - 0.0546875 42ac4_16 + e4_16 = 0
 R408: - V3_16 + 3 f4_16 + 2 h4_16 + 3 32ac4_16 + 4 42ac4_16 <= 0
 R409: - V3_16 + 2 f4_16 + h4_16 + 32ac4_16 + 2 42ac4_16 + V4_16 - f4_17
   - h4_17 = 0
 R410: - 0.015625 32ac4_17 - 0.0546875 42ac4_17 + e4_17 = 0
 R411: - V3_17 + 3 f4_17 + 2 h4_17 + 3 32ac4_17 + 4 42ac4_17 <= 0
 R412: - V3_17 + 2 f4_17 + h4_17 + 32ac4_17 + 2 42ac4_17 + V4_17 - f4_18
   - h4_18 = 0
 R413: - 0.015625 32ac4_18 - 0.0546875 42ac4_18 + e4_18 = 0
 R414: - V3_18 + 3 f4_18 + 2 h4_18 + 3 32ac4_18 + 4 42ac4_18 <= 0
 R415: - V3_18 + 2 f4_18 + h4_18 + 32ac4_18 + 2 42ac4_18 + V4_18 - f4_19
   - h4_19 = 0
 R416: - 0.015625 32ac4_19 - 0.0546875 42ac4_19 + e4_19 = 0
 R417: - V3_19 + 3 f4_19 + 2 h4_19 + 3 32ac4_19 + 4 42ac4_19 <= 0
 R418: - V3_19 + 2 f4_19 + h4_19 + 32ac4_19 + 2 42ac4_19 + V4_19 - f4_20
   - h4_20 = 0
 R419: - 0.015625 32ac4_20 - 0.0546875 42ac4_20 + e4_20 = 0
 R420: - V3_20 + 3 f4_20 + 2 h4_20 + 3 32ac4_20 + 4 42ac4_20 <= 0
 R421: - V3_20 + 2 f4_20 + h4_20 + 32ac4_20 + 2 42ac4_20 + V4_20 - f4_21
   - h4_21 = 0
 R422: - 0.015625 32ac4_21 - 0.0546875 42ac4_21 + e4_21 = 0
 R423: - V3_21 + 3 f4_21 + 2 h4_21 + 3 32ac4_21 + 4 42ac4_21 <= 0
 R424: - V3_21 + 2 f4_21 + h4_21 + 32ac4_21 + 2 42ac4_21 + V4_21 - f4_22
   - h4_22 = 0
 R425: - 0.015625 32ac4_22 - 0.0546875 42ac4_22 + e4_22 = 0
 R426: - V3_22 + 3 f4_22 + 2 h4_22 + 3 32ac4_22 + 4 42ac4_22 <= 0
 R427: - V3_22 + 2 f4_22 + h4_22 + 32ac4_22 + 2 42ac4_22 + V4_22 - f4_23
   - h4_23 = 0
 R428: - 0.015625 32ac4_23 - 0.0546875 42ac4_23 + e4_23 = 0
 R429: - V3_23 + 3 f4_23 + 2 h4_23 + 3 32ac4_23 + 4 42ac4_23 <= 0
 R430: - V3_23 + 2 f4_23 + h4_23 + 32ac4_23 + 2 42ac4_23 + V4_23 - f4_24
   - h4_24 = 0
 R431: - 0.015625 32ac4_24 - 0.0546875 42ac4_24 + e4_24 = 0
 R432: - V3_24 + 3 f4_24 + 2 h4_24 + 3 32ac4_24 + 4 42ac4_24 <= 0
 R433: - V3_24 + 2 f4_24 + h4_24 + 32ac4_24 + 2 42ac4_24 + V4_24 - f4_25
   - h4_25 = 0
 R434: - 0.015625 32ac4_25 - 0.0546875 42ac4_25 + e4_25 = 0
 R435: - V3_25 + 3 f4_25 + 2 h4_25 + 3 32ac4_25 + 4 42ac4_25 <= 0
 R436: - V3_25 + 2 f4_25 + h4_25 + 32ac4_25 + 2 42ac4_25 + V4_25 - f4_26
   - h4_26 = 0
 R437: - 0.015625 32ac4_26 - 0.0546875 42ac4_26 + e4_26 = 0
 R438: - V3_26 + 3 f4_26 + 2 h4_26 + 3 32ac4_26 + 4 42ac4_26 <= 0
 R439: - V3_26 + 2 f4_26 + h4_26 + 32ac4_26 + 2 42ac4_26 + V4_26 - f4_27
   - h4_27 = 0
 R440: - 0.015625 32ac4_27 - 0.0546875 42ac4_27 + e4_27 = 0
 R441: - V3_27 + 3 f4_27 + 2 h4_27 + 3 32ac4_27 + 4 42ac4_27 <= 0
 R442: - V3_27 + 2 f4_27 + h4_27 + 32ac4_27 + 2 42ac4_27 + V4_27 - f4_28
   - h4_28 = 0
 R443: - 0.015625 32ac4_28 - 0.0546875 42ac4_28 + e4_28 = 0
 R444: - V3_28 + 3 f4_28 + 2 h4_28 + 3 32ac4_28 + 4 42ac4_28 <= 0
 R445: - V3_28 + 2 f4_28 + h4_28 + 32ac4_28 + 2 42ac4_28 + V4_28 - f4_29
   - h4_29 = 0
 R446: - 0.015625 32ac4_29 - 0.0546875 42ac4_29 + e4_29 = 0
 R447: - V3_29 + 3 f4_29 + 2 h4_29 + 3 32ac4_29 + 4 42ac4_29 <= 0
 R448: - V3_29 + 2 f4_29 + h4_29 + 32ac4_29 + 2 42ac4_29 + V4_29 - f4_30
   - h4_30 = 0
 R449: - 0.015625 32ac4_30 - 0.0546875 42ac4_30 + e4_30 = 0
 R450: - V3_30 + 3 f4_30 + 2 h4_30 + 3 32ac4_30 + 4 42ac4_30 <= 0
 R451: - V3_30 + 2 f4_30 + h4_30 + 32ac4_30 + 2 42ac4_30 + V4_30 - f4_31
   - h4_31 = 0
 R452: - 0.015625 32ac4_31 - 0.0546875 42ac4_31 + e4_31 = 0
 R453: - V3_31 + 3 f4_31 + 2 h4_31 + 3 32ac4_31 + 4 42ac4_31 <= 0
 R454: - V3_31 + 2 f4_31 + h4_31 + 32ac4_31 + 2 42ac4_31 + V4_31 - f4_32
   - h4_32 = 0
 R455: - 0.015625 32ac4_32 - 0.0546875 42ac4_32 + e4_32 = 0
 R456: - V3_32 + 3 f4_32 + 2 h4_32 + 3 32ac4_32 + 4 42ac4_32 <= 0
 R457: - V3_32 + 2 f4_32 + h4_32 + 32ac4_32 + 2 42ac4_32 + V4_32 - f4_33
   - h4_33 = 0
 R458: - 0.015625 32ac4_33 - 0.0546875 42ac4_33 + e4_33 = 0
 R459: - V3_33 + 3 f4_33 + 2 h4_33 + 3 32ac4_33 + 4 42ac4_33 <= 0
 R460: - V3_33 + 2 f4_33 + h4_33 + 32ac4_33 + 2 42ac4_33 + V4_33 - f4_34
   - h4_34 = 0
 R461: V4_34 = 1
 R462: f4_34 = 0
 R463: h4_34 = 0
 R464: 32ac4_34 = 0
 R465: 42ac4_34 = 0
 R466: e4_34 = 0
 R467: V4_0 <= 2
 R468: V4_1 <= 2
 R469: V4_2 <= 2
 R470: V4_3 <= 2
 R471: V4_4 <= 2
 R472: V4_4 >= 1
 R473: V4_5 <= 2
 R474: V4_5 >= 1
 R475: V4_6 <= 2
 R476: V4_6 >= 1
 R477: V4_7 <= 2
 R478: V4_7 >= 1
 R479: V4_8 <= 2
 R480: V4_8 >= 1
 R481: V4_9 <= 2
 R482: V4_9 >= 1
 R483: V4_10 <= 2
 R484: V4_10 >= 1
 R485: V4_11 <= 2
 R486: V4_11 >= 1
 R487: V4_12 <= 2
 R488: V4_12 >= 1
 R489: V4_13 <= 2
 R490: V4_13 >= 1
 R491: V4_14 <= 2
 R492: V4_14 >= 1
 R493: V4_15 <= 2
 R494: V4_15 >= 1
 R495: V4_16 <= 2
 R496: V4_16 >= 1
 R497: V4_17 <= 2
 R498: V4_17 >= 1
 R499: V4_18 <= 2
 R500: V4_18 >= 1
 R501: V4_19 <= 2
 R502: V4_19 >= 1
 R503: V4_20 <= 2
 R504: V4_20 >= 1
 R505: V4_21 <= 2
 R506: V4_21 >= 1
 R507: V4_22 <= 2
 R508: V4_22 >= 1
 R509: V4_23 <= 2
 R510: V4_23 >= 1
 R511: V4_24 <= 2
 R512: V4_24 >= 1
 R513: V4_25 <= 2
 R514: V4_25 >= 1
 R515: V4_26 <= 2
 R516: V4_26 >= 1
 R517: V4_27 <= 2
 R518: V4_27 >= 1
 R519: V4_28 <= 2
 R520: V4_28 >= 1
 R521: V4_29 <= 2
 R522: V4_29 >= 1
 R523: V4_30 <= 2
 R524: V4_30 >= 1
 R525: V4_31 <= 2
 R526: V4_31 >= 1
 R527: V4_32 <= 2
 R528: V4_32 >= 1
 R529: V4_33 <= 2
 R530: V4_33 >= 1
 R531: f1_0 + f1_1 + f1_2 + f1_3 + f1_4 + f1_5 + f1_6 + f1_7 + f1_8 + f1_9
   + f1_10 + f1_11 + f1_12 + f1_13 + f1_14 + f1_15 + f1_16 + f1_17 + f1_18
   + f1_19 + f1_20 + f1_21 + f1_22 + f1_23 + f1_24 + f1_25 + f1_26 + f1_27
   + f1_28 + f1_29 + f1_30 + f1_31 + f1_32 + f1_33 + f1_34 + f2_0 + f2_1
   + f2_2 + f2_3 + f2_4 + f2_5 + f2_6 + f2_7 + f2_8 + f2_9 + f2_10 + f2_11
   + f2_12 + f2_13 + f2_14 + f2_15 + f2_16 + f2_17 + f2_18 + f2_19 + f2_20
   + f2_21 + f2_22 + f2_23 + f2_24 + f2_25 + f2_26 + f2_27 + f2_28 + f2_29
   + f2_30 + f2_31 + f2_32 + f2_33 + f2_34 + f3_0 + f3_1 + f3_2 + f3_3
   + f3_4 + f3_5 + f3_6 + f3_7 + f3_8 + f3_9 + f3_10 + f3_11 + f3_12
   + f3_13 + f3_14 + f3_15 + f3_16 + f3_17 + f3_18 + f3_19 + f3_20 + f3_21
   + f3_22 + f3_23 + f3_24 + f3_25 + f3_26 + f3_27 + f3_28 + f3_29 + f3_30
   + f3_31 + f3_32 + f3_33 + f3_34 + f4_0 + f4_1 + f4_2 + f4_3 + f4_4
   + f4_5 + f4_6 + f4_7 + f4_8 + f4_9 + f4_10 + f4_11 + f4_12 + f4_13
   + f4_14 + f4_15 + f4_16 + f4_17 + f4_18 + f4_19 + f4_20 + f4_21 + f4_22
   + f4_23 + f4_24 + f4_25 + f4_26 + f4_27 + f4_28 + f4_29 + f4_30 + f4_31
   + f4_32 + f4_33 + f4_34 - fs = 0
 R532: h1_0 + h1_1 + h1_2 + h1_3 + h1_4 + h1_5 + h1_6 + h1_7 + h1_8 + h1_9
   + h1_10 + h1_11 + h1_12 + h1_13 + h1_14 + h1_15 + h1_16 + h1_17 + h1_18
   + h1_19 + h1_20 + h1_21 + h1_22 + h1_23 + h1_24 + h1_25 + h1_26 + h1_27
   + h1_28 + h1_29 + h1_30 + h1_31 + h1_32 + h1_33 + h1_34 + h2_0 + h2_1
   + h2_2 + h2_3 + h2_4 + h2_5 + h2_6 + h2_7 + h2_8 + h2_9 + h2_10 + h2_11
   + h2_12 + h2_13 + h2_14 + h2_15 + h2_16 + h2_17 + h2_18 + h2_19 + h2_20
   + h2_21 + h2_22 + h2_23 + h2_24 + h2_25 + h2_26 + h2_27 + h2_28 + h2_29
   + h2_30 + h2_31 + h2_32 + h2_33 + h2_34 + h3_0 + h3_1 + h3_2 + h3_3
   + h3_4 + h3_5 + h3_6 + h3_7 + h3_8 + h3_9 + h3_10 + h3_11 + h3_12
   + h3_13 + h3_14 + h3_15 + h3_16 + h3_17 + h3_18 + h3_19 + h3_20 + h3_21
   + h3_22 + h3_23 + h3_24 + h3_25 + h3_26 + h3_27 + h3_28 + h3_29 + h3_30
   + h3_31 + h3_32 + h3_33 + h3_34 + h4_0 + h4_1 + h4_2 + h4_3 + h4_4
   + h4_5 + h4_6 + h4_7 + h4_8 + h4_9 + h4_10 + h4_11 + h4_12 + h4_13
   + h4_14 + h4_15 + h4_16 + h4_17 + h4_18 + h4_19 + h4_20 + h4_21 + h4_22
   + h4_23 + h4_24 + h4_25 + h4_26 + h4_27 + h4_28 + h4_29 + h4_30 + h4_31
   + h4_32 + h4_33 + h4_34 - hs = 0
 R533: 32ac1_0 + 32ac1_1 + 32ac1_2 + 32ac1_3 + 32ac1_4 + 32ac1_5 + 32ac1_6
   + 32ac1_7 + 32ac1_8 + 32ac1_9 + 32ac1_10 + 32ac1_11 + 32ac1_12
   + 32ac1_13 + 32ac1_14 + 32ac1_15 + 32ac1_16 + 32ac1_17 + 32ac1_18
   + 32ac1_19 + 32ac1_20 + 32ac1_21 + 32ac1_22 + 32ac1_23 + 32ac1_24
   + 32ac1_25 + 32ac1_26 + 32ac1_27 + 32ac1_28 + 32ac1_29 + 32ac1_30
   + 32ac1_31 + 32ac1_32 + 32ac1_33 + 32ac1_34 + 32ac2_0 + 32ac2_1
   + 32ac2_2 + 32ac2_3 + 32ac2_4 + 32ac2_5 + 32ac2_6 + 32ac2_7 + 32ac2_8
   + 32ac2_9 + 32ac2_10 + 32ac2_11 + 32ac2_12 + 32ac2_13 + 32ac2_14
   + 32ac2_15 + 32ac2_16 + 32ac2_17 + 32ac2_18 + 32ac2_19 + 32ac2_20
   + 32ac2_21 + 32ac2_22 + 32ac2_23 + 32ac2_24 + 32ac2_25 + 32ac2_26
   + 32ac2_27 + 32ac2_28 + 32ac2_29 + 32ac2_30 + 32ac2_31 + 32ac2_32
   + 32ac2_33 + 32ac2_34 + 32ac3_0 + 32ac3_1 + 32ac3_2 + 32ac3_3 + 32ac3_4
   + 32ac3_5 + 32ac3_6 + 32ac3_7 + 32ac3_8 + 32ac3_9 + 32ac3_10 + 32ac3_11
   + 32ac3_12 + 32ac3_13 + 32ac3_14 + 32ac3_15 + 32ac3_16 + 32ac3_17
   + 32ac3_18 + 32ac3_19 + 32ac3_20 + 32ac3_21 + 32ac3_22 + 32ac3_23
   + 32ac3_24 + 32ac3_25 + 32ac3_26 + 32ac3_27 + 32ac3_28 + 32ac3_29
   + 32ac3_30 + 32ac3_31 + 32ac3_32 + 32ac3_33 + 32ac3_34 + 32ac4_0
   + 32ac4_1 + 32ac4_2 + 32ac4_3 + 32ac4_4 + 32ac4_5 + 32ac4_6 + 32ac4_7
   + 32ac4_8 + 32ac4_9 + 32ac4_10 + 32ac4_11 + 32ac4_12 + 32ac4_13
   + 32ac4_14 + 32ac4_15 + 32ac4_16 + 32ac4_17 + 32ac4_18 + 32ac4_19
   + 32ac4_20 + 32ac4_21 + 32ac4_22 + 32ac4_23 + 32ac4_24 + 32ac4_25
   + 32ac4_26 + 32ac4_27 + 32ac4_28 + 32ac4_29 + 32ac4_30 + 32ac4_31
   + 32ac4_32 + 32ac4_33 + 32ac4_34 - ac32s = 0
 R534: 42ac1_0 + 42ac1_1 + 42ac1_2 + 42ac1_3 + 42ac1_4 + 42ac1_5 + 42ac1_6
   + 42ac1_7 + 42ac1_8 + 42ac1_9 + 42ac1_10 + 42ac1_11 + 42ac1_12
   + 42ac1_13 + 42ac1_14 + 42ac1_15 + 42ac1_16 + 42ac1_17 + 42ac1_18
   + 42ac1_19 + 42ac1_20 + 42ac1_21 + 42ac1_22 + 42ac1_23 + 42ac1_24
   + 42ac1_25 + 42ac1_26 + 42ac1_27 + 42ac1_28 + 42ac1_29 + 42ac1_30
   + 42ac1_31 + 42ac1_32 + 42ac1_33 + 42ac1_34 + 42ac2_0 + 42ac2_1
   + 42ac2_2 + 42ac2_3 + 42ac2_4 + 42ac2_5 + 42ac2_6 + 42ac2_7 + 42ac2_8
   + 42ac2_9 + 42ac2_10 + 42ac2_11 + 42ac2_12 + 42ac2_13 + 42ac2_14
   + 42ac2_15 + 42ac2_16 + 42ac2_17 + 42ac2_18 + 42ac2_19 + 42ac2_20
   + 42ac2_21 + 42ac2_22 + 42ac2_23 + 42ac2_24 + 42ac2_25 + 42ac2_26
   + 42ac2_27 + 42ac2_28 + 42ac2_29 + 42ac2_30 + 42ac2_31 + 42ac2_32
   + 42ac2_33 + 42ac2_34 + 42ac3_0 + 42ac3_1 + 42ac3_2 + 42ac3_3 + 42ac3_4
   + 42ac3_5 + 42ac3_6 + 42ac3_7 + 42ac3_8 + 42ac3_9 + 42ac3_10 + 42ac3_11
   + 42ac3_12 + 42ac3_13 + 42ac3_14 + 42ac3_15 + 42ac3_16 + 42ac3_17
   + 42ac3_18 + 42ac3_19 + 42ac3_20 + 42ac3_21 + 42ac3_22 + 42ac3_23
   + 42ac3_24 + 42ac3_25 + 42ac3_26 + 42ac3_27 + 42ac3_28 + 42ac3_29
   + 42ac3_30 + 42ac3_31 + 42ac3_32 + 42ac3_33 + 42ac3_34 + 42ac4_0
   + 42ac4_1 + 42ac4_2 + 42ac4_3 + 42ac4_4 + 42ac4_5 + 42ac4_6 + 42ac4_7
   + 42ac4_8 + 42ac4_9 + 42ac4_10 + 42ac4_11 + 42ac4_12 + 42ac4_13
   + 42ac4_14 + 42ac4_15 + 42ac4_16 + 42ac4_17 + 42ac4_18 + 42ac4_19
   + 42ac4_20 + 42ac4_21 + 42ac4_22 + 42ac4_23 + 42ac4_24 + 42ac4_25
   + 42ac4_26 + 42ac4_27 + 42ac4_28 + 42ac4_29 + 42ac4_30 + 42ac4_31
   + 42ac4_32 + 42ac4_33 + 42ac4_34 - ac42s = 0
 R535: - e1_0 - e2_0 - e3_0 - e4_0 + E_0 = 0
 R536: - e1_1 - e2_1 - e3_1 - e4_1 + E_1 = 0
 R537: - e1_2 - e2_2 - e3_2 - e4_2 + E_2 = 0
 R538: - e1_3 - e2_3 - e3_3 - e4_3 + E_3 = 0
 R539: - e1_4 - e2_4 - e3_4 - e4_4 + E_4 = 0
 R540: - e1_5 - e2_5 - e3_5 - e4_5 + E_5 = 0
 R541: - e1_6 - e2_6 - e3_6 - e4_6 + E_6 = 0
 R542: - e1_7 - e2_7 - e3_7 - e4_7 + E_7 = 0
 R543: - e1_8 - e2_8 - e3_8 - e4_8 + E_8 = 0
 R544: - e1_9 - e2_9 - e3_9 - e4_9 + E_9 = 0
 R545: - e1_10 - e2_10 - e3_10 - e4_10 + E_10 = 0
 R546: - e1_11 - e2_11 - e3_11 - e4_11 + E_11 = 0
 R547: - e1_12 - e2_12 - e3_12 - e4_12 + E_12 = 0
 R548: - e1_13 - e2_13 - e3_13 - e4_13 + E_13 = 0
 R549: - e1_14 - e2_14 - e3_14 - e4_14 + E_14 = 0
 R550: - e1_15 - e2_15 - e3_15 - e4_15 + E_15 = 0
 R551: - e1_16 - e2_16 - e3_16 - e4_16 + E_16 = 0
 R552: - e1_17 - e2_17 - e3_17 - e4_17 + E_17 = 0
 R553: - e1_18 - e2_18 - e3_18 - e4_18 + E_18 = 0
 R554: - e1_19 - e2_19 - e3_19 - e4_19 + E_19 = 0
 R555: - e1_20 - e2_20 - e3_20 - e4_20 + E_20 = 0
 R556: - e1_21 - e2_21 - e3_21 - e4_21 + E_21 = 0
 R557: - e1_22 - e2_22 - e3_22 - e4_22 + E_22 = 0
 R558: - e1_23 - e2_23 - e3_23 - e4_23 + E_23 = 0
 R559: - e1_24 - e2_24 - e3_24 - e4_24 + E_24 = 0
 R560: - e1_25 - e2_25 - e3_25 - e4_25 + E_25 = 0
 R561: - e1_26 - e2_26 - e3_26 - e4_26 + E_26 = 0
 R562: - e1_27 - e2_27 - e3_27 - e4_27 + E_27 = 0
 R563: - e1_28 - e2_28 - e3_28 - e4_28 + E_28 = 0
 R564: - e1_29 - e2_29 - e3_29 - e4_29 + E_29 = 0
 R565: - e1_30 - e2_30 - e3_30 - e4_30 + E_30 = 0
 R566: - e1_31 - e2_31 - e3_31 - e4_31 + E_31 = 0
 R567: - e1_32 - e2_32 - e3_32 - e4_32 + E_32 = 0
 R568: - e1_33 - e2_33 - e3_33 - e4_33 + E_33 = 0
 R569: - e1_34 - e2_34 - e3_34 - e4_34 + E_34 = 0
 R570: - 1.7179869184e+10 E_0 - 8.589934592e+09 E_1 - 4.294967296e+09 E_2
   - 2.147483648e+09 E_3 - 1.073741824e+09 E_4 - 5.36870912e+08 E_5
   - 2.68435456e+08 E_6 - 1.34217728e+08 E_7 - 6.7108864e+07 E_8
   - 3.3554432e+07 E_9 - 1.6777216e+07 E_10 - 8.388608e+06 E_11
   - 4.194304e+06 E_12 - 2.097152e+06 E_13 - 1.048576e+06 E_14
   - 524288 E_15 - 262144 E_16 - 131072 E_17 - 65536 E_18 - 32768 E_19
   - 16384 E_20 - 8192 E_21 - 4096 E_22 - 2048 E_23 - 1024 E_24 - 512 E_25
   - 256 E_26 - 128 E_27 - 64 E_28 - 32 E_29 - 16 E_30 - 8 E_31 - 4 E_32
   - 2 E_33 - E_34 + E = 0
Bounds
Generals
 V0_0 V0_1 V0_2 V0_3 V0_4 V0_5 V0_6 V0_7 V0_8 V0_9 V0_10 V0_11 V0_12 V0_13
 V0_14 V0_15 V0_16 V0_17 V0_18 V0_19 V0_20 V0_21 V0_22 V0_23 V0_24 V0_25
 V0_26 V0_27 V0_28 V0_29 V0_30 V0_31 V0_32 V0_33 V0_34 f1_0 h1_0 32ac1_0
 42ac1_0 V1_0 f1_1 h1_1 32ac1_1 42ac1_1 V1_1 f1_2 h1_2 32ac1_2 42ac1_2 V1_2
 f1_3 h1_3 32ac1_3 42ac1_3 V1_3 f1_4 h1_4 32ac1_4 42ac1_4 V1_4 f1_5 h1_5
 32ac1_5 42ac1_5 V1_5 f1_6 h1_6 32ac1_6 42ac1_6 V1_6 f1_7 h1_7 32ac1_7
 42ac1_7 V1_7 f1_8 h1_8 32ac1_8 42ac1_8 V1_8 f1_9 h1_9 32ac1_9 42ac1_9 V1_9
 f1_10 h1_10 32ac1_10 42ac1_10 V1_10 f1_11 h1_11 32ac1_11 42ac1_11 V1_11
 f1_12 h1_12 32ac1_12 42ac1_12 V1_12 f1_13 h1_13 32ac1_13 42ac1_13 V1_13
 f1_14 h1_14 32ac1_14 42ac1_14 V1_14 f1_15 h1_15 32ac1_15 42ac1_15 V1_15
 f1_16 h1_16 32ac1_16 42ac1_16 V1_16 f1_17 h1_17 32ac1_17 42ac1_17 V1_17
 f1_18 h1_18 32ac1_18 42ac1_18 V1_18 f1_19 h1_19 32ac1_19 42ac1_19 V1_19
 f1_20 h1_20 32ac1_20 42ac1_20 V1_20 f1_21 h1_21 32ac1_21 42ac1_21 V1_21
 f1_22 h1_22 32ac1_22 42ac1_22 V1_22 f1_23 h1_23 32ac1_23 42ac1_23 V1_23
 f1_24 h1_24 32ac1_24 42ac1_24 V1_24 f1_25 h1_25 32ac1_25 42ac1_25 V1_25
 f1_26 h1_26 32ac1_26 42ac1_26 V1_26 f1_27 h1_27 32ac1_27 42ac1_27 V1_27
 f1_28 h1_28 32ac1_28 42ac1_28 V1_28 f1_29 h1_29 32ac1_29 42ac1_29 V1_29
 f1_30 h1_30 32ac1_30 42ac1_30 V1_30 f1_31 h1_31 32ac1_31 42ac1_31 V1_31
 f1_32 h1_32 32ac1_32 42ac1_32 V1_32 f1_33 h1_33 32ac1_33 42ac1_33 V1_33
 f1_34 h1_34 32ac1_34 42ac1_34 V1_34 f2_0 h2_0 32ac2_0 42ac2_0 V2_0 f2_1
 h2_1 32ac2_1 42ac2_1 V2_1 f2_2 h2_2 32ac2_2 42ac2_2 V2_2 f2_3 h2_3 32ac2_3
 42ac2_3 V2_3 f2_4 h2_4 32ac2_4 42ac2_4 V2_4 f2_5 h2_5 32ac2_5 42ac2_5 V2_5
 f2_6 h2_6 32ac2_6 42ac2_6 V2_6 f2_7 h2_7 32ac2_7 42ac2_7 V2_7 f2_8 h2_8
 32ac2_8 42ac2_8 V2_8 f2_9 h2_9 32ac2_9 42ac2_9 V2_9 f2_10 h2_10 32ac2_10
 42ac2_10 V2_10 f2_11 h2_11 32ac2_11 42ac2_11 V2_11 f2_12 h2_12 32ac2_12
 42ac2_12 V2_12 f2_13 h2_13 32ac2_13 42ac2_13 V2_13 f2_14 h2_14 32ac2_14
 42ac2_14 V2_14 f2_15 h2_15 32ac2_15 42ac2_15 V2_15 f2_16 h2_16 32ac2_16
 42ac2_16 V2_16 f2_17 h2_17 32ac2_17 42ac2_17 V2_17 f2_18 h2_18 32ac2_18
 42ac2_18 V2_18 f2_19 h2_19 32ac2_19 42ac2_19 V2_19 f2_20 h2_20 32ac2_20
 42ac2_20 V2_20 f2_21 h2_21 32ac2_21 42ac2_21 V2_21 f2_22 h2_22 32ac2_22
 42ac2_22 V2_22 f2_23 h2_23 32ac2_23 42ac2_23 V2_23 f2_24 h2_24 32ac2_24
 42ac2_24 V2_24 f2_25 h2_25 32ac2_25 42ac2_25 V2_25 f2_26 h2_26 32ac2_26
 42ac2_26 V2_26 f2_27 h2_27 32ac2_27 42ac2_27 V2_27 f2_28 h2_28 32ac2_28
 42ac2_28 V2_28 f2_29 h2_29 32ac2_29 42ac2_29 V2_29 f2_30 h2_30 32ac2_30
 42ac2_30 V2_30 f2_31 h2_31 32ac2_31 42ac2_31 V2_31 f2_32 h2_32 32ac2_32
 42ac2_32 V2_32 f2_33 h2_33 32ac2_33 42ac2_33 V2_33 f2_34 h2_34 32ac2_34
 42ac2_34 V2_34 f3_0 h3_0 32ac3_0 42ac3_0 V3_0 f3_1 h3_1 32ac3_1 42ac3_1
 V3_1 f3_2 h3_2 32ac3_2 42ac3_2 V3_2 f3_3 h3_3 32ac3_3 42ac3_3 V3_3 f3_4
 h3_4 32ac3_4 42ac3_4 V3_4 f3_5 h3_5 32ac3_5 42ac3_5 V3_5 f3_6 h3_6 32ac3_6
 42ac3_6 V3_6 f3_7 h3_7 32ac3_7 42ac3_7 V3_7 f3_8 h3_8 32ac3_8 42ac3_8 V3_8
 f3_9 h3_9 32ac3_9 42ac3_9 V3_9 f3_10 h3_10 32ac3_10 42ac3_10 V3_10 f3_11
 h3_11 32ac3_11 42ac3_11 V3_11 f3_12 h3_12 32ac3_12 42ac3_12 V3_12 f3_13
 h3_13 32ac3_13 42ac3_13 V3_13 f3_14 h3_14 32ac3_14 42ac3_14 V3_14 f3_15
 h3_15 32ac3_15 42ac3_15 V3_15 f3_16 h3_16 32ac3_16 42ac3_16 V3_16 f3_17
 h3_17 32ac3_17 42ac3_17 V3_17 f3_18 h3_18 32ac3_18 42ac3_18 V3_18 f3_19
 h3_19 32ac3_19 42ac3_19 V3_19 f3_20 h3_20 32ac3_20 42ac3_20 V3_20 f3_21
 h3_21 32ac3_21 42ac3_21 V3_21 f3_22 h3_22 32ac3_22 42ac3_22 V3_22 f3_23
 h3_23 32ac3_23 42ac3_23 V3_23 f3_24 h3_24 32ac3_24 42ac3_24 V3_24 f3_25
 h3_25 32ac3_25 42ac3_25 V3_25 f3_26 h3_26 32ac3_26 42ac3_26 V3_26 f3_27
 h3_27 32ac3_27 42ac3_27 V3_27 f3_28 h3_28 32ac3_28 42ac3_28 V3_28 f3_29
 h3_29 32ac3_29 42ac3_29 V3_29 f3_30 h3_30 32ac3_30 42ac3_30 V3_30 f3_31
 h3_31 32ac3_31 42ac3_31 V3_31 f3_32 h3_32 32ac3_32 42ac3_32 V3_32 f3_33
 h3_33 32ac3_33 42ac3_33 V3_33 f3_34 h3_34 32ac3_34 42ac3_34 V3_34 f4_0
 h4_0 32ac4_0 42ac4_0 V4_0 f4_1 h4_1 32ac4_1 42ac4_1 V4_1 f4_2 h4_2 32ac4_2
 42ac4_2 V4_2 f4_3 h4_3 32ac4_3 42ac4_3 V4_3 f4_4 h4_4 32ac4_4 42ac4_4 V4_4
 f4_5 h4_5 32ac4_5 42ac4_5 V4_5 f4_6 h4_6 32ac4_6 42ac4_6 V4_6 f4_7 h4_7
 32ac4_7 42ac4_7 V4_7 f4_8 h4_8 32ac4_8 42ac4_8 V4_8 f4_9 h4_9 32ac4_9
 42ac4_9 V4_9 f4_10 h4_10 32ac4_10 42ac4_10 V4_10 f4_11 h4_11 32ac4_11
 42ac4_11 V4_11 f4_12 h4_12 32ac4_12 42ac4_12 V4_12 f4_13 h4_13 32ac4_13
 42ac4_13 V4_13 f4_14 h4_14 32ac4_14 42ac4_14 V4_14 f4_15 h4_15 32ac4_15
 42ac4_15 V4_15 f4_16 h4_16 32ac4_16 42ac4_16 V4_16 f4_17 h4_17 32ac4_17
 42ac4_17 V4_17 f4_18 h4_18 32ac4_18 42ac4_18 V4_18 f4_19 h4_19 32ac4_19
 42ac4_19 V4_19 f4_20 h4_20 32ac4_20 42ac4_20 V4_20 f4_21 h4_21 32ac4_21
 42ac4_21 V4_21 f4_22 h4_22 32ac4_22 42ac4_22 V4_22 f4_23 h4_23 32ac4_23
 42ac4_23 V4_23 f4_24 h4_24 32ac4_24 42ac4_24 V4_24 f4_25 h4_25 32ac4_25
 42ac4_25 V4_25 f4_26 h4_26 32ac4_26 42ac4_26 V4_26 f4_27 h4_27 32ac4_27
 42ac4_27 V4_27 f4_28 h4_28 32ac4_28 42ac4_28 V4_28 f4_29 h4_29 32ac4_29
 42ac4_29 V4_29 f4_30 h4_30 32ac4_30 42ac4_30 V4_30 f4_31 h4_31 32ac4_31
 42ac4_31 V4_31 f4_32 h4_32 32ac4_32 42ac4_32 V4_32 f4_33 h4_33 32ac4_33
 42ac4_33 V4_33 f4_34 h4_34 32ac4_34 42ac4_34 V4_34 hs fs ac32s ac42s
End
